System
1.0
5.399289 4.351007 0.0
-5.399289 4.351007 0.0
0.0 0.0 7.5816725
O V
18 8
direct
0.32516627579929724 0.32516627579929724 0.5000001648713278 
0.6748330347056202 0.6748330347056202 0.5000001648713278 
0.029089912307432443 0.29733136262654847 0.7177282366655368 
0.7026679478783688 0.9709093981974849 0.2822720930771189 
0.029089912307432443 0.29733136262654847 0.282272093077119 
0.7026679478783688 0.9709093981974849 0.7177282366655369 
0.9709093981974849 0.7026679478783688 0.2822720930771189 
0.29733136262654847 0.029089912307432443 0.7177282366655368 
0.9709093981974849 0.7026679478783688 0.7177282366655369 
0.29733136262654847 0.029089912307432443 0.282272093077119 
0.794237600756775 0.20576170974814245 0.0 
0.2057617097481424 0.794237600756775 0.0 
0.31096678558978263 0.31096678558978263 1.0000003297426556 
0.6890325249151348 0.6890325249151348 0.0 
0.6236396323531516 0.37635967815176585 0.7350082423634899 
0.6236396323531516 0.37635967815176585 0.26499208737916574 
0.37635967815176585 0.6236396323531516 0.26499208737916574 
0.37635967815176585 0.6236396323531516 0.7350082423634899 
0.684650027936847 0.6846500279368469 0.7415532445216556 
0.3153492825680705 0.3153492825680705 0.25844708522100013 
0.684650027936847 0.6846500279368469 0.25844708522100013 
0.3153492825680705 0.3153492825680705 0.7415532445216556 
0.7871506020693549 0.21284870843556247 0.7707482541484925 
0.7871506020693549 0.21284870843556247 0.22925207559416333 
0.21284870843556247 0.7871506020693549 0.22925207559416333 
0.21284870843556247 0.7871506020693549 0.7707482541484925 
