System
1.0
-0.00479574 0.0 6.66898545
6.74563007 0.0 -1.82665726
0.0 7.220464 0.0
Pr V O
4 4 16
direct
0.3999902482040813 0.22222849482842824 0.6545591126133238 
0.8999902004009953 0.7222288157429382 0.8454417183586641 
0.6000096561897469 0.7777721470005916 0.3454414413680014 
0.10000970399283284 0.27777182608608175 0.15455883562266115 
0.8854225515540655 0.1995658109709792 0.6645519681491762 
0.3854230131369356 0.6995655007279921 0.8354488628228117 
0.11457735283976274 0.8004348308580406 0.3354485858321492 
0.6145768912568926 0.3004351411010278 0.16455169115851345 
0.07633980548623648 0.2522420208742051 0.4962520449142132 
0.5763397576831506 0.7522423417887151 0.003748232076449423 
0.9236600989075918 0.7477586209548147 0.5037485090671121 
0.4236601467106777 0.24775830004030477 0.9962523219048758 
0.9998068269944117 0.1118528922295007 0.8470430192457543 
0.4998072885772819 0.6118525819865135 0.6529578117262336 
0.00019307739941647775 0.8881477495995191 0.15295753473557086 
0.5001926158165463 0.38814805984250633 0.34704274225509174 
0.6706217757350309 0.017740573457486884 0.6045346849007404 
0.1706222373179009 0.5177402632144996 0.8954661460712474 
0.3293781286587974 0.982260068371533 0.3954658690805849 
0.8293776670759272 0.4822603786145202 0.10453440791007775 
0.7718406862654934 0.3853030712649485 0.7195161885983109 
0.2718411478483636 0.8853027610219613 0.780484642373677 
0.22815921812833473 0.6146975705640715 0.28048436538301436 
0.7281587565454645 0.11469788080705856 0.21951591160764825 
