System
1.0
-2.982063239 2.982063239 4.255114596
2.982063239 -2.982063239 4.255114596
2.982063239 2.982063239 -4.255114596
Ba Ho Nb O
2 1 1 6
direct
0.7500008131092292 0.2500002700282719 0.5000005430809573 
0.25000027002827185 0.7500008131092293 0.5000005430809574 
0.0 0.0 0.0 
0.5000005400565438 0.5000005400565438 0.0 
0.26200028298962896 0.26200028298962896 2.4561528732842958e-36 
0.7380007971234587 0.7380007971234587 1.419885929557584e-34 
0.2960003184795132 0.7710008344064228 0.06700007277284831 
0.7710008344033983 0.7040007616305499 0.4740005148407476 
0.22900024873410288 0.2960003215069512 0.5260005713211673 
0.7040007646579879 0.22900024873107847 0.9330010133890665 
