System
1.0
7.149509 0.0 0.0
0.0 3.982547 0.0
0.0 0.0 3.982547
Ce O Ru
2 5 2
direct
0.0 0.0 0.0 
0.4999999300651373 0.0 0.0 
0.232999967410354 0.49999962335689446 0.0 
0.7669998927199206 0.49999962335689446 0.0 
0.232999967410354 0.0 0.49999962335689446 
0.7669998927199206 0.0 0.49999962335689446 
0.4999999300651373 0.49999962335689446 0.49999962335689446 
0.19099997328488247 0.49999962335689446 0.49999962335689446 
0.8089998868453924 0.49999962335689446 0.49999962335689446 
