System
1.0
-1.929717435 1.929717435 6.777424258
1.929717435 -1.929717435 6.777424258
1.929717435 1.929717435 -6.777424258
K Mn O
2 1 2
direct
0.3290002066984191 0.3290002066984191 5.415171983991219e-35 
0.6710004215642531 0.671000421564253 -1.4831539459869904e-33 
0.0 0.0 0.0 
0.13500008481546075 0.13500008481546075 7.950843491842522e-35 
0.8650005434472114 0.8650005434472114 -7.950843491842522e-35 
