System
1.0
14.074242 0.0 0.0
0.0 5.777977 0.0
0.0 0.0 10.046417
Cr O Sr
8 32 16
direct
0.5270000748885908 0.7259996230516547 0.12899996147881534 
0.026900003822586515 0.7739995981294501 0.12899996147881534 
0.22600003211541086 0.1879999023880318 0.28399991519367096 
0.7260001031672048 0.31199983800566977 0.28399991519367096 
0.9730001382667909 0.22599988265795312 0.628999812171898 
0.47300006721499704 0.2739998577357485 0.628999812171898 
0.2740000389363831 0.6879996427817333 0.7839997658867537 
0.774000109988177 0.8119995783993713 0.7839997658867537 
0.014000001989450232 0.5539997123562214 0.0078099976678259525 
0.5140000730412442 0.9459995088248833 0.0078099976678259525 
0.9700001378404802 0.025499986760078776 0.057099982949150044 
0.4700000667886863 0.47399975389322907 0.057099982949150044 
0.3030000430573871 0.13799992834866165 0.14199995759683548 
0.8030001141091812 0.3619998120450399 0.14199995759683548 
0.6420000912305034 0.6229996765305522 0.18399994505505443 
0.14200002017870947 0.8769995446505526 0.18399994505505443 
0.6200000881042245 0.14699992367574827 0.24699992624238284 
0.12000001705243055 0.3529998167179532 0.24699992624238284 
0.9540001355668228 0.7229996246092925 0.27399991817980934 
0.4540000645150289 0.7769995965718122 0.27399991817980934 
0.7930001126881453 0.055499971183700876 0.3489998957837717 
0.29300004163635124 0.443999769469607 0.3489998957837717 
0.7440001057250694 0.5029997388360637 0.42299987368634795 
0.24400003467327544 0.996999482345041 0.42299987368634795 
0.48600006906234366 0.05439997175483473 0.507999848304172 
0.9860001401141376 0.4459997684311818 0.507999848304172 
0.5300000753149016 0.5259997268941741 0.5569998336720942 
0.030200004291528356 0.9739994942869306 0.5569998336720942 
0.1970000279944068 0.6379996687423632 0.6419998082899182 
0.6970000990462007 0.8619995524387415 0.6419998082899182 
0.8580001219248784 0.12299993613685059 0.6839997957481372 
0.35800005087308445 0.376999804256851 0.6839997957481372 
0.8800001250511573 0.6469996640694499 0.7469997769354656 
0.38000005399936343 0.8529995571116549 0.7469997769354656 
0.5460000775885591 0.2229998842155909 0.773999768872892 
0.04590000652255469 0.2769998561781107 0.773999768872892 
0.7070001004672366 0.5559997113177962 0.8489997464768544 
0.20700002941544268 0.9439995098633086 0.8489997464768544 
0.7560001074303124 0.002569998665623626 0.9229997243794307 
0.25600003637851854 0.49699974195133934 0.9229997243794307 
0.13000001847346643 0.2219998847348035 0.001069999680483197 
0.6300000895252603 0.2779998556588981 0.001069999680483197 
0.29600004206266195 0.6859996438201585 0.138999958492677 
0.7960001131144561 0.8139995773609461 0.138999958492677 
0.4510000640887181 0.23299987902346492 0.2789999166867402 
0.951000135140512 0.2669998613702366 0.2789999166867402 
0.12100001719453413 0.686999643300946 0.4149998760752587 
0.6210000882463281 0.8129995778801588 0.4149998760752587 
0.3700000525783275 0.721999625128505 0.5009998503944688 
0.8700001236301214 0.7779995960525996 0.5009998503944688 
0.20400002898913192 0.18599990342645698 0.6389998091857597 
0.7040001000409258 0.3139998369672446 0.6389998091857597 
0.04890000694886544 0.7329996194171665 0.7789997673798229 
0.5490000780148697 0.7669996017639382 0.7789997673798229 
0.3790000538572598 0.18699990290724436 0.9149997267683414 
0.8790001249090538 0.3129998374864572 0.9149997267683414 
