System
1.0
3.501109 0.0 0.0
1.750554 3.032049 0.0
0.0 0.0 22.952136
Ga Mn O Y
2 4 10 2
direct
0.0 0.0 0.0 
0.0 0.0 0.4999999128621558 
0.6670006815243038 0.6669997800168203 0.12599997804126326 
0.6670006815243038 0.6669997800168203 0.3739999348208925 
0.33300034025126407 0.3329998901733151 0.625999890903419 
0.33300034025126407 0.3329998901733151 0.8739998476830483 
0.6670006815243038 0.6669997800168203 0.036999993551799525 
0.0 0.0 0.15099997368437104 
0.6670006815243038 0.6669997800168203 0.2499999564310779 
0.0 0.0 0.34899993917778466 
0.6670006815243038 0.6669997800168203 0.4629999193103562 
0.33300034025126407 0.3329998901733151 0.5369999064139553 
0.0 0.0 0.6509998865465269 
0.33300034025126407 0.3329998901733151 0.7499998692932337 
0.0 0.0 0.8489998520399406 
0.33300034025126407 0.3329998901733151 0.9629998321725121 
0.0 0.0 0.2499999564310779 
0.0 0.0 0.7499998692932337 
