System
1.0
3.930218 0.0 0.0
0.0 3.930218 0.0
0.0 0.0 3.277713
Nd Ni O
1 1 2
direct
0.49999974556131727 0.49999974556131727 0.5000004576365816 
0.0 0.0 0.0 
0.49999974556131727 0.0 0.0 
0.0 0.49999974556131727 0.0 
