System
1.0
4.171858 0.0 0.0
0.0 4.171858 0.0
0.0 0.0 4.171858
Fe O Pb
1 3 1
direct
0.0 0.0 0.0 
0.4999997602987637 0.4999997602987637 0.0 
0.4999997602987637 0.0 0.4999997602987637 
0.0 0.4999997602987637 0.4999997602987637 
0.4999997602987637 0.4999997602987637 0.4999997602987637 
