System
1.0
3.933782 0.0 0.0
0.0 3.933782 0.0
0.0 0.0 7.587992
Ba Co La O
1 2 1 6
direct
0.0 0.0 0.5000001317872059 
0.5000002542084203 0.5000002542084203 0.2480000653664541 
0.5000002542084203 0.5000002542084203 0.7520001982079576 
0.0 0.0 0.0 
0.5000002542084203 0.5000002542084203 0.0 
0.5000002542084203 0.0 0.23000006062211473 
0.0 0.5000002542084203 0.23000006062211473 
0.5000002542084203 0.5000002542084203 0.5000001317872059 
0.5000002542084203 0.0 0.7700002029522971 
0.0 0.5000002542084203 0.7700002029522971 
