System
1.0
2.953918 -1.705444 -4.437964
-2.953918 -1.705444 -4.437964
0.0 3.41089 -4.437964
Ag Ce O
2 2 6
direct
0.0 0.0 0.0 
0.5000008415631493 0.5000008415631493 0.49999966884622926 
0.25000042078157464 0.25000042078157464 0.24999983442311463 
0.7500012623447241 0.7500012623447241 0.749999503269344 
0.7500006686718529 0.3480009408525484 0.1519995171193721 
0.6520011784779154 0.8480010457728996 0.24999935305046783 
0.15200093058763714 0.7500005257019259 0.34799967035421037 
0.8480007525386616 0.2500011574243728 0.6519996673382482 
0.34800050464838345 0.15200063735339914 0.7499999846419908 
0.25000101445444584 0.6520007422737504 0.8479998205730864 
