System
1.0
-5.202113167 5.202113167 2.682662365
5.202113167 -5.202113167 2.682662365
5.202113167 5.202113167 -2.682662365
K Na O
4 4 4
direct
0.8430006496093004 0.500000440793839 0.3430002088154616 
0.5000004407938391 0.8430006496093003 0.3430002088154616 
0.5000003043957165 0.15700009558025493 0.6570003999759715 
0.15700009558025507 0.5000003043957163 0.6570003999759714 
0.8430006496093004 0.15700023197837776 5.686197875429837e-17 
0.15700023197837765 0.8430006496093003 2.8505228273934026e-17 
0.1570000957166531 0.15700009571665302 0.3130001905517185 
0.8430006494729025 0.8430006494729024 0.6870004182397145 
0.00012500009314875683 0.2930001783929395 0.2930001783758898 
0.29300031477401256 1.0000007451895554 0.2930001783758898 
0.0001250000931488607 0.7070004304325925 0.7070004304155431 
0.7070005668136657 1.0000007451895554 0.707000430415543 
