System
1.0
3.657216 0.0 0.0
0.0 3.657216 0.0
0.0 0.0 5.643567
Eu O Sc
1 3 1
direct
0.49999945313653543 0.49999945313653543 0.48799974058973306 
0.49999945313653543 0.49999945313653543 0.09469994965952402 
0.49999945313653543 0.0 0.7179996183266975 
0.0 0.49999945313653543 0.7179996183266975 
0.0 0.0 0.8829995306162589 
