System
1.0
6.631542 0.0 0.0
0.0 7.803893 0.0
0.0 0.0 5.191235
Ca O S
4 16 4
direct
0.1660000500637861 0.18500007111837816 0.24999975920974565 
0.33400010073075037 0.6850002633302111 0.24999975920974565 
0.6660002008583226 0.3150001210934547 0.749999277629237 
0.8340002515252867 0.8150003133052875 0.749999277629237 
0.8120002448903272 0.07180002760161922 0.01669998391521101 
0.6880002074932821 0.5720002198903368 0.01669998391521101 
0.5400001628580993 0.20800007996012246 0.24999975920974565 
0.9250002789698923 0.3960001522317717 0.24999975920974565 
0.9600002895255099 0.7080002721719553 0.24999975920974565 
0.5750001734137168 0.8960003444436045 0.24999975920974565 
0.8120002448903272 0.07180002760161922 0.48299953479322855 
0.6880002074932821 0.5720002198903368 0.48299953479322855 
0.3120000940957907 0.42800016453332895 0.516999502045754 
0.1880000566987457 0.9280003567451618 0.516999502045754 
0.42500012817535593 0.10400003998006123 0.749999277629237 
0.04040001218419854 0.29200011225171035 0.749999277629237 
0.07500002261918046 0.6040002321918941 0.749999277629237 
0.46000013873097345 0.7920003044635434 0.749999277629237 
0.3120000940957907 0.42800016453332895 0.9829990532127199 
0.1880000566987457 0.9280003567451618 0.9829990532127199 
0.6810002053821587 0.06020002314230468 0.24999975920974565 
0.8190002470014506 0.5600002152772529 0.24999975920974565 
0.18100005458762217 0.44000016914641293 0.749999277629237 
0.3190000962069142 0.9400003613582457 0.749999277629237 
