System
1.0
5.172124 0.0 0.0
0.0 5.506557 0.0
0.0 0.0 7.476542
Ga Lu O
4 4 12
direct
0.5000003866886307 0.0 0.0 
0.0 0.49999972759762895 0.0 
0.5000003866886307 0.0 0.5000001337517087 
0.0 0.49999972759762895 0.5000001337517087 
0.9790007571363387 0.07249996050165619 0.25000006687585435 
0.5210004029295532 0.5729996878268827 0.25000006687585435 
0.47900037044770816 0.4269997673683751 0.750000200627563 
0.021300016472935664 0.9269994949660042 0.750000200627563 
0.689000532856933 0.30799983220013943 0.061800016531711195 
0.811000627208959 0.8079995597977684 0.061800016531711195 
0.12300009512540314 0.45299975320345187 0.25000006687585435 
0.3770002915632275 0.9529994808010809 0.25000006687585435 
0.689000532856933 0.30799983220013943 0.43800011716649684 
0.811000627208959 0.8079995597977684 0.43800011716649684 
0.18900014616830238 0.19199989539748952 0.5620001503369206 
0.31100024052032826 0.6919996229951184 0.5620001503369206 
0.6230004818140338 0.04659997461209903 0.750000200627563 
0.8770006782518582 0.5469997019918061 0.750000200627563 
0.18900014616830238 0.19199989539748952 0.9380002509182055 
0.31100024052032826 0.6919996229951184 0.9380002509182055 
