System
1.0
0.0 5.232747 0.0
-6.080099 -2.616374 0.034414
2.179422 -2.616374 6.19925
C O Tl
2 6 4
direct
0.5099992067176581 0.8580000040314487 0.16200055359297946 
0.4899988836797816 0.14199973436302432 0.8380000930984502 
0.20599950332677883 0.7750000297826596 0.06670049989517741 
0.6359992568024847 0.7750000297826596 0.06670049989517741 
0.682999278891771 0.018699887330770194 0.34700001269136554 
0.3169988116282609 0.9809998510436979 0.6530006338066034 
0.3639988338732499 0.22499970871030028 0.9330001467957058 
0.7939985873489558 0.22499970871030028 0.9330001467957058 
0.9049990157300505 0.5509999517156785 0.25900035579488867 
0.2329995162473324 0.15999990988466506 0.30700010373849557 
0.7669985741501073 0.8399998285098081 0.6930005429529342 
0.09469907483938286 0.44899978667879464 0.7410002908965411 
