System
1.0
5.739442 0.0 0.0
0.0 5.952247 0.0
0.0 0.0 8.162352
Eu Lu O
4 4 12
direct
0.9790003411482653 0.05679997137217018 0.2500000612568684 
0.5210001815508133 0.5569997192658238 0.2500000612568684 
0.4790001669152391 0.4429997767230878 0.7500001837706053 
0.021300007422326916 0.9429995247175436 0.7500001837706053 
0.5000001742330262 0.0 0.0 
0.0 0.4999997479944558 0.0 
0.5000001742330262 0.0 0.5000001225137368 
0.0 0.4999997479944558 0.5000001225137368 
0.7010002442747026 0.29599985081271785 0.06360001558374732 
0.7990002784243759 0.7959995988071737 0.06360001558374732 
0.11900004146746024 0.4499997731950102 0.2500000612568684 
0.381000132765566 0.949999521189466 0.2500000612568684 
0.7010002442747026 0.29599985081271785 0.43600010683197854 
0.7990002784243759 0.7959995988071737 0.43600010683197854 
0.20100007004167655 0.20399989718173797 0.5640001381954951 
0.29900010419134965 0.7039996451761936 0.5640001381954951 
0.6190002157004865 0.050299974648242256 0.7500001837706053 
0.8810003069985921 0.5499997227939014 0.7500001837706053 
0.20100007004167655 0.20399989718173797 0.9360002293457154 
0.29900010419134965 0.7039996451761936 0.9360002293457154 
