System
1.0
4.374755 -0.003608 -0.003397
0.276426 4.366015 -0.003397
0.276426 0.259265 4.358312
Cl O Tl
1 3 1
direct
0.49099854441757396 0.49099904571241876 0.4910008993867902 
0.5529987108672275 0.5529993979640011 0.15000082866295103 
0.5529987163622245 0.14999940345906101 0.5530007362044904 
0.14999884932548282 0.552998757466547 0.5530007358042666 
0.011899964722136723 0.011899976871645183 0.011900021797765385 
