System
1.0
5.034854 0.0 0.0
0.0 8.446856 0.0
0.0 2.440691 14.242715
K Ag N O
4 4 8 24
direct
0.5479564353305462 0.7360157762995324 0.5679048006332357 
0.04795603809924825 0.2639840798872968 0.9320946727819546 
0.45204435913204966 0.2639839699754368 0.43209484831022443 
0.9520447563633476 0.7360156663876725 0.06790497616150566 
0.08580206816647966 0.807495790279073 0.785482724251056 
0.5858024653977776 0.1925040659077562 0.7145167491641343 
0.9141987262961162 0.19250395599589623 0.21451692469240427 
0.4141983290648183 0.8074956803672132 0.28548289977932584 
0.14202011282957785 0.4378119387508336 0.6645147667176634 
0.6420205100608758 0.5621879174359956 0.835484706697527 
0.8579806816330179 0.5621878075241357 0.3354848822257967 
0.3579802844017201 0.4378118288389737 0.16451494224593335 
0.05383504276989384 0.06196910254251451 0.5999707893762568 
0.5538354400011918 0.9380307536443149 0.9000286840389335 
0.946165751692702 0.9380306437324548 0.40002885956720347 
0.4461653544614041 0.06196899263065459 0.09997096490452666 
0.4582603640704292 0.3237158955506224 0.22220492199348157 
0.958260761301727 0.676283740812487 0.27779490247824856 
0.5417404303921666 0.6762838507243469 0.7777947269499786 
0.041740033160868745 0.32371600546248236 0.7222047464652117 
0.47363237628290816 0.5701587611107114 0.14151695031953165 
0.9736327735142061 0.42984087525239806 0.3584828741521984 
0.5263684181796876 0.42984098516425795 0.8584826986239286 
0.026368020948389727 0.5701588710225711 0.6415167747912618 
0.6117384860029594 0.9903365665082382 0.16140694333701705 
0.11173808877166153 0.0096630698548712 0.338592881134713 
0.3882623084596364 0.009663179766731105 0.8385927056064432 
0.8882627056909342 0.9903366764200984 0.6614067678087471 
0.2045141624787233 0.02026701344714767 0.1048319631980408 
0.7045145597100212 0.9797326229159616 0.3951678612736893 
0.7954866319838726 0.9797327328278216 0.8951676857454194 
0.29548623475257463 0.0202671233590076 0.604831787669771 
0.5270764187421672 0.17275292637355258 0.03721398693578192 
0.027076021510869245 0.8272467099895568 0.46278583753594815 
0.4729243757204287 0.8272468199014167 0.9627856620076783 
0.9729247729517265 0.1727530362854125 0.537213811407512 
0.1277801015164305 0.4179068304234098 0.12884295476882227 
0.6277804987477283 0.5820928059396996 0.37115686970290784 
0.8722206929461652 0.5820929158515594 0.8711566941746379 
0.3722202957148674 0.41790694033526976 0.6288427792405524 
