System
1.0
9.689564 0.0 0.0
0.0 4.211806 0.0
0.0 0.0 4.211806
Hg O U
2 5 2
direct
0.0 0.0 0.0 
0.5000002064077214 0.0 0.0 
0.2430001003141526 0.49999952514477153 0.0 
0.7570003125012902 0.49999952514477153 0.0 
0.2430001003141526 0.0 0.49999952514477153 
0.7570003125012902 0.0 0.49999952514477153 
0.5000002064077214 0.49999952514477153 0.49999952514477153 
0.27900011517550855 0.49999952514477153 0.49999952514477153 
0.7210002976399341 0.49999952514477153 0.49999952514477153 
