System
1.0
3.144142 -1.815271 -4.464435
-3.144142 -1.815271 -4.464435
0.0 3.630542 -4.464435
Ce Mo O
2 2 6
direct
0.0 0.0 0.0 
0.4999994400193529 0.4999994400193529 0.4999994400193529 
0.24999972000967646 0.24999972000967646 0.24999972000967646 
0.7499991600290294 0.7499991600290294 0.7499991600290294 
0.7499997296879984 0.4529995407651134 0.04689932970726667 
0.5469993093738414 0.9529995676320614 0.24999916306183242 
0.04689929974755968 0.7499997469922752 0.45299955342054354 
0.9529995802874915 0.24999913310638658 0.5469993266738571 
0.4529995707248204 0.04689931240298983 0.7499997170325682 
0.24999915040640222 0.5469993393292873 0.9529995503320458 
