System
1.0
5.466271 0.0 0.0
0.0 5.317916 0.0
0.0 5.270652 7.744539
Mn Fe Sb O
4 2 2 12
direct
0.9504221738702993 0.2639811780002037 0.7470499035384929 
0.5495781005398563 0.2639809259690205 0.24704996810010663 
0.04957800906980445 0.7360185738883805 0.25294996733827957 
0.45042208240024734 0.7360188259195637 0.7529499027766657 
0.0 0.4999996239131089 0.0 
0.5000000914700518 0.49999987594429207 0.4999999354383862 
0.0 2.5203118319530136e-07 0.4999999354383862 
0.5000000914700518 0.0 0.0 
0.690527126325081 0.370265195817549 0.9409968784954302 
0.8094731480850744 0.3702649437863659 0.440996943057044 
0.3094730566150227 0.6297345560710351 0.059002992381342205 
0.19052703485502911 0.6297348081022184 0.5590029278197284 
0.6941621269900682 0.7482577225876228 0.5662149268884917 
0.8058381474200873 0.7482574705564398 0.06621499145010548 
0.30583805595003544 0.2517420293009614 0.4337849439882807 
0.1941620355200164 0.25174228133214455 0.933784879426667 
0.5555871016391434 0.1274752842048746 0.7540499026346302 
0.944413172771012 0.12747503217369133 0.25404996719624406 
0.4444130813009603 0.8725244676837097 0.2459499682421422 
0.05558701016909153 0.872524719714893 0.7459499036805284 
