System
1.0
-5.750596 -3.931737 -0.010498
5.750596 -3.931737 0.010498
-4.000641 0.0 6.301918
Mo O Zr
4 16 2
direct
0.93499930150411 0.5019996020347811 0.2430000597983516 
0.5019997005910063 0.9349992029478847 0.2569997818482705 
0.4979997335309484 0.06539983658304688 0.7429999013186382 
0.06540013225172266 0.4979994378622727 0.756999623621228 
0.9859992363829475 0.6809994916611246 0.060600077138329135 
0.7939994236502834 0.9759992258026305 0.0792999174025377 
0.39799974827530826 0.6609994436855031 0.16199986562796626 
0.35299974865211353 0.056099939196014754 0.20600002853087457 
0.05610003775223997 0.3529996500958883 0.2939998131157475 
0.6609995422417283 0.39799964971908286 0.33799997601865583 
0.9759993244179894 0.7939993250349243 0.42099992414907234 
0.680999590138505 0.9859991379055671 0.43899976463497564 
0.3189998439301503 0.013699902212778763 0.5609999187530201 
0.024300109421759312 0.2059997148545153 0.5789997592389233 
0.33899989184976964 0.601999390147514 0.6619997072745883 
0.9439993962553417 0.6469993897783228 0.7059998702090804 
0.6469996854469986 0.9439991005866657 0.7939996547307858 
0.6019996858161897 0.3389995961810939 0.8379998176652779 
0.20600001052319095 0.02429981375308366 0.9209997657009429 
0.013700197881454438 0.31899954826147464 0.9389996061868461 
0.020900033330974708 0.02089993477474948 0.24999992082331104 
0.9789994008368254 0.9789991051681496 0.7499997624699332 
