System
1.0
4.800794 -4.802099 0.0
-4.800794 0.0 -4.802099
4.800794 4.802099 0.0
O Pr Tm
8 2 4
direct
0.1689998502488363 0.7789998377793049 0.389999804227304 
0.61000027861251 0.22099995397846775 0.39000032442579996 
0.6099999880511879 0.7789998377793049 0.3900000338644779 
0.14000011664746845 0.2789999419004186 0.41900005854788697 
0.6100005082496839 0.22099995397846775 0.8310004622281516 
0.14000011612674926 0.720999849857354 0.8599999661923455 
0.14000034628464234 0.2789999419004186 0.8600001963502386 
0.5810002539291008 0.720999849857354 0.8600001958295194 
0.0 0.0 0.0 
0.750000104177937 0.4999998958788863 0.2500002082990508 
0.37499979172936093 0.7499998438183295 0.12499984378991778 
0.8750004686870703 0.24999994793944316 0.625000520747627 
0.3750000520889686 0.7499998438183295 0.6250000000284117 
0.3750003124485762 0.24999994793944316 0.6250002603880194 
