In2 W1 O6
1.0
   4.0233796399999999    0.0000018000000000    0.0000583000000000
   0.0000017900000000    4.0234382200000001   -0.0001585600000000
  -2.0115844300000001   -2.0120074799999998    7.5276220900000004
O W In
6 1 2
direct
   0.3222960600000000    0.8256441200000000    0.1479572200000000 O
   0.1744575900000000    0.1745274000000000    0.8519999500000000 O
   0.8254546699999999    0.3226238200000000    0.1480969800000000 O
   0.6775140400000000    0.6775802900000000    0.8519831100000000 O
   0.7500870600000000    0.2498315700000000    0.5000051100000000 O
   0.2501218000000000    0.7498430900000000    0.5000015500000000 O
   0.5000022900000000    0.5000802300000000    0.0000065000000000 W
   0.1863430800000000    0.1861664000000000    0.3726037300000000 In
   0.8138254300000000    0.8135740700000000    0.6274118400000001 In
