Sr1 Tb1 Si2 O7
1.0
   4.8309634700000004    0.0180604500000000    0.0241739500000000
  -0.6949718499999999    5.8964854899999999   -0.0253445400000000
  -0.6949718499999999   -1.6963221100000001    5.6472714499999999
Sr Si Tb O
1 2 1 7
direct
   0.5000000000000000    0.3020295100000000    0.6979704900000000 Sr
   0.9070861099999999    0.2124869900000000    0.2025702500000000 Si
   0.0929138900000000    0.7974297500000000    0.7875130100000000 Si
   0.5000000000000000    0.6912104500000000    0.3087895500000000 Tb
   0.7064636500000000    0.3867165400000000    0.1154833900000000 O
   0.2935363500000000    0.8845166100000000    0.6132834600000000 O
   0.7404645800000000    0.0547217000000000    0.3457120300000000 O
   0.2595354200000000    0.6542879700000001    0.9452783000000000 O
   0.0000000000000000    0.0418626000000000    0.9581374000000000 O
   0.7980129400000000    0.6422912200000001    0.6281543500000000 O
   0.2019870600000000    0.3718456500000000    0.3577087800000000 O
