Sr2 Sm1 P1 O6
1.0
   5.6662382300000003    0.0000000000000000    0.0000000000000000
   2.8331191100000002    4.9071062500000000    0.0000000000000000
   2.8331191100000002    1.6357020799999999    4.6264641400000004
Sr O Sm P
2 6 1 1
direct
   0.2500000000000000    0.2500000000000000    0.2500000000000000 Sr
   0.7500000000000000    0.7500000000000000    0.7500000000000000 Sr
   0.2826998600000000    0.7173001400000000    0.7173001400000000 O
   0.7173001400000000    0.2826998600000000    0.7173001400000000 O
   0.2826998600000000    0.7173001400000000    0.2826998600000000 O
   0.7173001400000000    0.7173001400000000    0.2826998600000000 O
   0.7173001400000000    0.2826998600000000    0.2826998600000000 O
   0.2826998600000000    0.2826998600000000    0.7173001400000000 O
   0.0000000000000000    0.0000000000000000    0.0000000000000000 Sm
   0.5000000000000000    0.5000000000000000    0.5000000000000000 P
