Li1 Tm2 Re1 O6
1.0
   5.5373808899999997   -0.2594645900000000   -0.2150857400000000
  -2.9443941599999999    4.9995519100000001    0.0493865300000000
  -0.3399118700000000    3.1821750400000002    4.5239209300000001
Re Tm O Li
1 2 6 1
direct
   0.0000000000000000    0.0000000000000000    0.0000000000000000 Re
   0.7961336100000000    0.5740115300000000    0.7216408500000000 Tm
   0.2038663900000000    0.4259884700000000    0.2783591500000000 Tm
   0.1819967100000000    0.0071334700000000    0.3323092700000000 O
   0.3612177600000000    0.1769438200000000    0.7531700800000000 O
   0.6387822399999999    0.8230561800000000    0.2468299200000000 O
   0.8180032900000000    0.9928665300000000    0.6676907300000000 O
   0.1397671200000000    0.4648063400000000    0.8457588200000000 O
   0.8602328800000000    0.5351936600000000    0.1542411800000000 O
   0.5000000000000000    0.0000000000000000    0.5000000000000000 Li
