Ba2 Nd1 Ta1 O6
1.0
   6.1076843600000004    0.0118752600000000    0.0084421600000000
   2.9996339999999999    5.3203502299999998    0.0084420800000000
   2.9996341599999998    1.7562496800000000    5.0221302899999998
Nd Ba O Ta
1 2 6 1
direct
   0.0000000000000000    0.0000000000000000    0.0000000000000000 Nd
   0.2515601800000000    0.2515599700000000    0.2515599800000000 Ba
   0.7484398200000000    0.7484400300000000    0.7484400200000000 Ba
   0.2731195200000000    0.7811285400000000    0.6793877400000000 O
   0.7811285700000000    0.6793877300000000    0.2731191700000000 O
   0.6793878100000000    0.2731191900000000    0.7811284800000000 O
   0.7268804800000001    0.2188714600000000    0.3206122600000000 O
   0.3206121900000000    0.7268808100000000    0.2188715200000000 O
   0.2188714300000000    0.3206122700000000    0.7268808300000000 O
   0.5000000000000000    0.5000000000000000    0.5000000000000000 Ta
