Ce3 Ge1 O8
1.0
   5.3710720299999997   -0.0001036200000000   -0.0006942400000000
  -0.0001036200000000    5.3710720700000003   -0.0006705300000000
  -2.6849915100000001   -2.6850141100000000    5.5435919299999998
Ge O Ce
1 8 3
direct
   0.9999965600000000    0.9999964700000000    0.0000012000000000 Ge
   0.1503498000000000    0.1503497500000000    0.6894567800000000 O
   0.4608896300000000    0.8496583599999999    0.3105421500000000 O
   0.8496582900000000    0.4608896500000000    0.3105421000000000 O
   0.5391053200000000    0.5391052100000000    0.6894601700000000 O
   0.8911594500000000    0.8911595000000000    0.1807659900000000 O
   0.7103780700000000    0.1088386700000000    0.8192529800000000 O
   0.1088386100000000    0.7103781300000001    0.8192528700000000 O
   0.2896153400000000    0.2896154500000000    0.1807373100000000 O
   0.5000093300000000    0.5000093700000000    0.0000158600000000 Ce
   0.2500214600000000    0.7500130800000000    0.5000108100000000 Ce
   0.7500131500000000    0.2500213700000000    0.5000107900000000 Ce
