Na2 Cu2 O4
1.0
   2.7839452800000002    0.0000000000000000    0.0000000000000000
   0.0000000000000000    5.7405955799999999    0.0000000000000000
   0.0000000000000000    0.0000000000000000    5.9245471800000002
Na O Cu
2 4 2
direct
   0.0000000000000000    0.0000000000000000    0.5000000000000000 Na
   0.5000000000000000    0.5000000000000000    0.0000000000000000 Na
   0.0000000000000000    0.1728726600000000    0.8755069800000000 O
   0.5000000000000000    0.6728726600000000    0.6244930200000000 O
   0.0000000000000000    0.8271273400000000    0.1244930200000000 O
   0.5000000000000000    0.3271273400000000    0.3755069800000000 O
   0.5000000000000000    0.0000000000000000    0.0000000000000000 Cu
   0.0000000000000000    0.5000000000000000    0.5000000000000000 Cu
