Tb2 Mo1 O6
1.0
   4.1267707199999997    0.0007685400000000   -0.0005775600000000
  -0.0007428000000000    4.1267713500000003   -0.0005597700000000
  -2.0626216600000000   -2.0633554099999998    7.8106355499999998
Mo Tb O
1 2 6
direct
   0.5000359200000000    0.5000378800000000    0.0000135700000000 Mo
   0.1840214500000000    0.1840195800000000    0.3682233400000000 Tb
   0.8158635800000000    0.8158586600000000    0.6318166300000000 Tb
   0.3283759000000000    0.8132643400000000    0.1414920300000000 O
   0.1868532300000000    0.1868603400000000    0.8585233400000000 O
   0.8132650000000000    0.3283741400000000    0.1414908600000000 O
   0.6717279500000000    0.6717351400000000    0.8585607300000000 O
   0.7499289000000000    0.2499403500000000    0.5000172600000000 O
   0.2499440800000000    0.7499255600000000    0.5000172500000000 O
