Ca1 Nb2 O6
1.0
   3.8637885800000000    0.0000379600000000    0.0000514100000000
  -1.9321426100000001    5.0408357500000003   -0.5810708400000000
  -0.0005082800000000   -2.4297919399999999    6.9275753499999997
Nb Ca O
2 1 6
direct
   0.1806869100000000    0.3613239900000000    0.6311679000000000 Nb
   0.8193108800000000    0.6386716800000000    0.3688232300000000 Nb
   0.0000003800000000    0.0000007600000000    0.0000002300000000 Ca
   0.7007622999999999    0.4015494700000000    0.5678482400000000 O
   0.2992382900000000    0.5984515800000000    0.4321515300000000 O
   0.3391490100000000    0.6782074299999999    0.8809776499999999 O
   0.0200557200000000    0.0399526500000000    0.6911181500000000 O
   0.6608545800000000    0.3217997600000000    0.1190277000000000 O
   0.9799419300000000    0.9600426800000000    0.3088823800000000 O
