Ca2 La1 Nb1 O6
1.0
   5.8432891800000002    0.0658000300000000    0.1162198300000000
  -2.8585516700000002    5.0969063999999999   -0.1161136600000000
   0.0221185900000000   -3.4569519500000001    4.9370079499999999
Nb Ca O La
1 2 6 1
direct
   0.4999998600000000    0.5000023900000000    0.0000011400000000 Nb
   0.2478549600000000    0.9612682700000000    0.2092117200000000 Ca
   0.7521206600000000    0.0387130900000000    0.7907918400000000 Ca
   0.6567882200000000    0.9624736500000000    0.1463805700000000 O
   0.2820095600000000    0.3583851500000000    0.6404012600000000 O
   0.1839321700000000    0.4896296000000000    0.1464105400000000 O
   0.7180311800000000    0.6416592600000000    0.3596041100000000 O
   0.8160647100000000    0.5103568900000000    0.8535880300000001 O
   0.3432013800000000    0.0375333600000000    0.8536309800000000 O
   0.9999953000000000    0.5000003500000000    0.5000018100000000 La
