Ba2 Yb2 O5
1.0
   4.3755785100000004    0.0000000000000000    0.0000000000000000
   0.0000000000000000    4.3755785100000004    0.0000000000000000
   0.0000000000000000    0.0000000000000000    8.6294347699999996
Yb Ba O
2 2 5
direct
   0.5000000000000000    0.5000000000000000    0.2521075600000000 Yb
   0.5000000000000000    0.5000000000000000    0.7479291800000000 Yb
   0.0000000000000000    0.0000000000000000    0.0000061000000000 Ba
   0.0000000000000000    0.0000000000000000    0.5001240400000000 Ba
   0.5000000000000000    0.0000000000000000    0.2050266100000000 O
   0.5000000000000000    0.0000000000000000    0.7948770200000000 O
   0.0000000000000000    0.5000000000000000    0.2050266100000000 O
   0.0000000000000000    0.5000000000000000    0.7948770200000000 O
   0.5000000000000000    0.5000000000000000    0.5000248800000000 O
