Li1 Y2 W1 O6
1.0
   5.6696894899999997   -0.1475848900000000   -0.0596324000000000
  -2.9757694400000001    4.9305466500000001    0.1032725100000000
  -0.2327430200000000    3.3432104400000000    4.6840689700000002
Y O W Li
2 6 1 1
direct
   0.7955840000000000    0.5468660800000000    0.7512389200000000 Y
   0.2044160000000000    0.4531339200000000    0.2487610800000000 Y
   0.1672165300000000    0.9996757200000000    0.3258803000000000 O
   0.3586585400000000    0.1422265800000000    0.7835387200000000 O
   0.6413414600000000    0.8577734200000000    0.2164612800000000 O
   0.8327834700000000    0.0003242800000000    0.6741197000000000 O
   0.1671629400000000    0.4930458400000000    0.8324654000000000 O
   0.8328370600000000    0.5069541600000000    0.1675346000000000 O
   0.0000000000000000    0.0000000000000000    0.0000000000000000 W
   0.5000000000000000    0.0000000000000000    0.5000000000000000 Li
