Mn4 O8
1.0
   4.8271673100000001    0.0000000000000000    0.0000000000000000
   0.0000000000000000    4.8271673100000001    0.0000000000000000
   0.0000000000000000    0.0000000000000000    4.8271673100000001
Mn O
4 8
direct
   0.0000000000000000    0.5000000000000000    0.5000000000000000 Mn
   0.5000000000000000    0.5000000000000000    0.0000000000000000 Mn
   0.5000000000000000    0.0000000000000000    0.5000000000000000 Mn
   0.0000000000000000    0.0000000000000000    0.0000000000000000 Mn
   0.3425236000000000    0.1574764000000000    0.8425236000000000 O
   0.1574764000000000    0.8425236000000000    0.3425236000000000 O
   0.8425236000000000    0.3425236000000000    0.1574764000000000 O
   0.6574764000000000    0.6574764000000000    0.6574764000000000 O
   0.3425236000000000    0.3425236000000000    0.3425236000000000 O
   0.1574764000000000    0.6574764000000000    0.8425236000000000 O
   0.8425236000000000    0.1574764000000000    0.6574764000000000 O
   0.6574764000000000    0.8425236000000000    0.1574764000000000 O
