Er2 Bi2 O6
1.0
   5.9802464500000001    0.0000493000000000    0.0000464900000000
   2.9901659000000000    5.1790559099999998    0.0000774200000000
  -2.9901463200000000   -1.7263962799999999    5.0398237000000004
Bi O Er
2 6 2
direct
   0.3571595900000000    0.3571575800000000    0.0714738300000000 Bi
   0.6428414400000000    0.6428434100000000    0.9285281900000000 Bi
   0.0094961700000000    0.7845628900000000    0.2490114100000000 O
   0.4549542500000000    0.0095016200000000    0.2490157000000000 O
   0.7845606000000001    0.4549673800000000    0.2490248600000000 O
   0.2154393300000000    0.5450325300000000    0.7509745300000000 O
   0.5450457800000000    0.9904986200000000    0.7509835600000000 O
   0.9905043900000000    0.2154368100000000    0.7509878900000000 O
   0.1420812000000000    0.1420809200000000    0.4262445100000000 Er
   0.8579192400000000    0.8579192400000000    0.5737555200000000 Er
