Nd2 Gd1 Ta1 O6
1.0
   5.7158891299999999    0.2478462800000000   -0.0553462400000000
  -2.5395936099999998    5.1281166200000001    0.0562055200000000
  -3.0935274800000001   -1.7982081200000000    4.9057885099999998
Gd Nd O Ta
1 2 6 1
direct
   0.0000000000000000    0.0000000000000000    0.0000000000000000 Gd
   0.5481910400000000    0.7487566400000000    0.2970713200000000 Nd
   0.4518089600000000    0.2512433600000000    0.7029286800000000 Nd
   0.5139125900000000    0.3122824000000000    0.3420520800000000 O
   0.9698632700000001    0.1717480100000000    0.6577264900000001 O
   0.4860874100000000    0.6877176000000000    0.6579479200000000 O
   0.0301367300000000    0.8282519900000000    0.3422735100000000 O
   0.1340773100000000    0.7210408300000000    0.8552777300000000 O
   0.8659226900000000    0.2789591700000000    0.1447222700000000 O
   0.0000000000000000    0.5000000000000000    0.5000000000000000 Ta
