Li4 Cl4 O12
1.0
   5.7192528500000002    0.0000000000000000    0.0000000000000000
   0.0000000000000000    5.3985701500000003    0.0000000000000000
   0.0000000000000000    0.0000000000000000    8.8712823200000006
Li O Cl
4 12 4
direct
   0.9563309600000000    0.4129194200000000    0.5192448400000000 Li
   0.9563309600000000    0.0870805800000000    0.0192448400000000 Li
   0.4563309600000000    0.5870805800000000    0.4807551600000000 Li
   0.4563309600000000    0.9129194200000000    0.9807551600000000 Li
   0.6705059400000000    0.4746027900000000    0.6610143900000000 O
   0.1583712700000000    0.1287933900000000    0.5831900000000000 O
   0.1705059400000000    0.9746027900000001    0.8389856100000000 O
   0.6583712700000000    0.8712066100000000    0.4168100000000000 O
   0.6583712700000000    0.6287933900000000    0.9168100000000000 O
   0.1705059400000000    0.5253972099999999    0.3389856100000000 O
   0.1784200600000000    0.6884070300000000    0.6297460600000000 O
   0.6784200600000000    0.1884070300000000    0.8702539400000000 O
   0.6784200600000000    0.3115929700000000    0.3702539400000000 O
   0.1784200600000000    0.8115929700000000    0.1297460600000000 O
   0.6705059400000000    0.0253972100000000    0.1610143900000000 O
   0.1583712700000000    0.3712066100000000    0.0831900000000000 O
   0.5695717700000000    0.4267540800000000    0.8159654700000000 Cl
   0.0695717700000000    0.5732459200000000    0.1840345300000000 Cl
   0.5695717700000000    0.0732459200000000    0.3159654700000000 Cl
   0.0695717700000000    0.9267540800000000    0.6840345300000000 Cl
