K2 Co2 O4
1.0
   4.4925437199999996    0.0000000000000000    0.0107442800000000
   0.0000000000000000    5.4760594400000002    0.0000000000000000
  -2.2609340300000000    0.0000000000000000    5.9303632500000001
K Co O
2 2 4
direct
   0.7007837700000000    0.2500000000000000    0.4015873600000000 K
   0.2992162300000000    0.7500000000000000    0.5984126400000001 K
   0.0020385600000000    0.7500000000000000    0.0040735100000000 Co
   0.9979614400000000    0.2500000000000000    0.9959264900000000 Co
   0.8955247600000000    0.9957350800000000    0.7909172400000000 O
   0.1044752400000000    0.4957350800000000    0.2090827600000000 O
   0.8955247600000000    0.5042649200000000    0.7909172400000000 O
   0.1044752400000000    0.0042649200000000    0.2090827600000000 O
