Li1 Dy1 Nb2 O7
1.0
   3.9162363600000001    0.0504496500000000   -0.0029739000000000
   0.0504496500000000    3.9162363600000001    0.0029739000000000
  -1.9885546100000000   -1.9781314000000001    9.9930052200000006
Nb Li O Dy
2 1 7 1
direct
   0.3943343000000000    0.3926559600000000    0.7720502600000000 Nb
   0.6206057100000000    0.6222840400000000    0.2279497400000000 Nb
   0.7510369300000000    0.2510369300000000    0.5000000000000000 Li
   0.5592078900000000    0.0873428700000000    0.1851957700000000 O
   0.4729689700000000    0.4729689700000000    0.0000000000000000 O
   0.9021471000000000    0.3740121100000000    0.8148042300000000 O
   0.2947284400000000    0.2987747100000000    0.5908370300000000 O
   0.0813193000000000    0.5644905300000000    0.1793733500000000 O
   0.7079376800000000    0.7038914100000000    0.4091629700000000 O
   0.3851171800000000    0.9019459500000000    0.8206266500000000 O
   0.0805965200000000    0.0805965200000000    0.0000000000000000 Dy
