Al4 In4 O12
1.0
   5.1120032000000002    0.0000000000000000    0.0000000000000000
   0.0000000000000000    5.2952632299999998    0.0000000000000000
   0.0000000000000000    0.0000000000000000    7.4962660899999998
Al O In
4 12 4
direct
   0.5000000000000000    0.0000000000000000    0.0000000000000000 Al
   0.0000000000000000    0.5000000000000000    0.0000000000000000 Al
   0.0000000000000000    0.5000000000000000    0.5000000000000000 Al
   0.5000000000000000    0.0000000000000000    0.5000000000000000 Al
   0.1989046200000000    0.2021836400000000    0.9412094300000000 O
   0.6989046200000000    0.2978163600000000    0.0587905700000000 O
   0.3010953800000000    0.7021836400000000    0.5587905700000000 O
   0.8010953800000000    0.7978163600000000    0.4412094300000000 O
   0.8010953800000000    0.7978163600000000    0.0587905700000000 O
   0.3010953800000000    0.7021836400000000    0.9412094300000000 O
   0.6989046200000000    0.2978163600000000    0.4412094300000000 O
   0.1989046200000000    0.2021836400000000    0.5587905700000000 O
   0.1112684400000000    0.4554643300000000    0.2500000000000000 O
   0.6112684400000000    0.0445356700000000    0.7500000000000000 O
   0.3887315600000000    0.9554643300000000    0.2500000000000000 O
   0.8887315600000000    0.5445356700000000    0.7500000000000000 O
   0.4813559800000000    0.4457181200000000    0.7500000000000000 In
   0.9813559800000000    0.0542818800000000    0.2500000000000000 In
   0.0186440200000000    0.9457181200000000    0.7500000000000000 In
   0.5186440200000000    0.5542818800000000    0.2500000000000000 In
