Sn2 B2 O6
1.0
   5.0004801800000003    0.0000000000000000    0.0000000000000000
   2.5002400900000001    4.3305428700000004    0.0000000000000000
   2.5002400900000001    1.4435142900000000    5.5650138800000004
B Sn O
2 2 6
direct
   0.7500000000000000    0.7500000000000000    0.7500000000000000 B
   0.2500000000000000    0.2500000000000000    0.2500000000000000 B
   0.5000000000000000    0.5000000000000000    0.5000000000000000 Sn
   0.0000000000000000    0.0000000000000000    0.0000000000000000 Sn
   0.2500000000000000    0.5286161900000000    0.2500000000000000 O
   0.5286161900000000    0.9713838100000000    0.2500000000000000 O
   0.9713838100000000    0.2500000000000000    0.2500000000000000 O
   0.7500000000000000    0.4713838100000000    0.7500000000000000 O
   0.4713838100000000    0.0286161900000000    0.7500000000000000 O
   0.0286161900000000    0.7500000000000000    0.7500000000000000 O
