Mg2 Ti2 O6
1.0
   5.2228085300000000    0.0008578800000000   -0.0032713100000000
  -0.0012117900000000    5.3783381200000004   -0.0000049400000000
  -2.6125794400000002   -0.0004346200000000    5.1880654799999997
Mg O Ti
2 6 2
direct
   0.8276320800000000    0.4999999300000000    0.6549471100000001 Mg
   0.1723685200000000    0.4999998200000000    0.3450545200000000 Mg
   0.4999906300000000    0.2309386600000000    0.4999810500000000 O
   0.9999904200000000    0.7690436100000000    0.4999822000000000 O
   0.5000002800000000    0.9999999200000000    0.0000007900000000 O
   0.0000100300000000    0.2309561600000000    0.5000192900000000 O
   0.5000099400000000    0.7690611000000001    0.5000206400000000 O
   0.0000006000000000    0.5000000400000000    0.0000008200000000 O
   0.3230924900000000    0.9999999400000000    0.6459244800000000 Ti
   0.6769080100000000    0.9999998100000000    0.3540771000000000 Ti
