Ba1 Eu2 W1 O6
1.0
   6.2822079300000002    0.0000000000000000    0.0000000000000000
   3.1411039600000001    5.4405516599999997    0.0000000000000000
   3.1411039600000001    1.8135172200000000    5.1294012899999997
Eu O Ba W
2 6 1 1
direct
   0.2500000000000000    0.2500000000000000    0.2500000000000000 Eu
   0.7500000000000000    0.7500000000000000    0.7500000000000000 Eu
   0.2191137300000000    0.7808862700000000    0.7808862700000000 O
   0.7808862700000000    0.2191137300000000    0.7808862700000000 O
   0.2191137300000000    0.7808862700000000    0.2191137300000000 O
   0.7808862700000000    0.7808862700000000    0.2191137300000000 O
   0.7808862700000000    0.2191137300000000    0.2191137300000000 O
   0.2191137300000000    0.2191137300000000    0.7808862700000000 O
   0.5000000000000000    0.5000000000000000    0.5000000000000000 Ba
   0.0000000000000000    0.0000000000000000    0.0000000000000000 W
