Sr1 Pd1 O3
1.0
   4.0428595999999999    0.0000000000000000    0.0000000000000000
   0.0000000000000000    4.0452809299999997    0.0000000000000000
   0.0000000000000000    0.0000000000000000    4.0452809299999997
Sr O Pd
1 3 1
direct
   0.5000000000000000    0.0000000000000000    0.0000000000000000 Sr
   0.5000000000000000    0.5000000000000000    0.5000000000000000 O
   0.0000000000000000    0.0000000000000000    0.5000000000000000 O
   0.0000000000000000    0.5000000000000000    0.0000000000000000 O
   0.0000000000000000    0.5000000000000000    0.5000000000000000 Pd
