Cs2 Sc1 C2 O6
1.0
   5.3881869900000003    0.0005661800000000    0.0002437400000000
   2.6945934299999998    4.6660218000000002    0.0004738500000000
   2.6954636600000002    1.5558901599999999    8.1372043600000001
Cs Sc C O
2 1 2 6
direct
   0.2264412100000000    0.2264367700000000    0.3204454400000000 Cs
   0.7735587900000001    0.7735632300000000    0.6795545600000000 Cs
   0.0000000000000000    0.0000000000000000    0.0000000000000000 Sc
   0.6206765200000000    0.6206756700000000    0.1379239300000000 C
   0.3793234800000000    0.3793243300000000    0.8620760700000000 C
   0.2411604300000000    0.2411622600000000    0.8575159700000000 O
   0.6602371299999999    0.2410883400000000    0.8575966000000000 O
   0.2410843000000000    0.6602458600000000    0.8575947500000000 O
   0.7589157000000000    0.3397541400000000    0.1424052500000000 O
   0.3397628700000000    0.7589116600000000    0.1424034000000000 O
   0.7588395700000000    0.7588377400000000    0.1424840300000000 O
