Tb2 Mg1 Pd1 O6
1.0
   5.4750367300000002    0.0031043700000000    0.0022128500000000
   2.5923973700000000    4.8223947899999997    0.0022108000000000
   2.5924118400000000    1.5506398299999999    4.5662876099999998
Mg Tb O Pd
1 2 6 1
direct
   0.5000000000000000    0.5000000000000000    0.5000000000000000 Mg
   0.7669332300000000    0.7669333600000000    0.7669344500000000 Tb
   0.2330667700000000    0.2330666400000000    0.2330655500000000 Tb
   0.3482016900000000    0.7720365300000001    0.1464302500000000 O
   0.7720365600000000    0.1464289500000000    0.3482018100000000 O
   0.1464294300000000    0.3482023900000000    0.7720382900000000 O
   0.6517983100000000    0.2279634700000000    0.8535697500000000 O
   0.8535705700000000    0.6517976100000000    0.2279617100000000 O
   0.2279634400000000    0.8535710500000000    0.6517981900000001 O
   0.0000000000000000    0.0000000000000000    0.0000000000000000 Pd
