Na1 Cu1 P2 O6
1.0
   5.1236329600000001    0.0052101100000000    0.0071267700000000
   2.5666956600000002    5.0554860100000001    0.0051310700000000
   0.0082484000000000    0.0030671500000000    5.8122619699999998
P O Cu Na
2 6 1 1
direct
   0.0008000300000000    0.4997304300000000    0.6692142000000000 P
   0.4996743500000000    0.5002470700000000    0.9974158100000000 P
   0.4022701800000000    0.7556872300000000    0.1261761800000000 O
   0.8395270000000000    0.7548110400000000    0.5401222100000000 O
   0.7759144000000000    0.4529515500000000    0.8357310999999999 O
   0.2297687600000000    0.5449505200000000    0.8308327700000000 O
   0.1596666700000000    0.2458100800000000    0.5383166300000000 O
   0.5931140000000000    0.2466866800000000    0.1286776400000000 O
   0.5008370599999999    0.9972219600000000    0.3320714900000000 Cu
   0.9983395600000000    0.0018864400000000    0.3347019600000000 Na
