Lu2 Ag2 O4
1.0
   3.4162137900000000    0.0000000000000000    0.0000000000000000
  -1.7081068900000000    2.9585279199999999    0.0000000000000000
   0.0000000000000000    0.0000000000000000   12.5247910699999991
Lu O Ag
2 4 2
direct
   0.0000000000000000    0.0000000000000000    0.0000310400000000 Lu
   0.0000000000000000    0.0000000000000000    0.4999705300000000 Lu
   0.6666666700000000    0.3333333300000000    0.9173098000000000 O
   0.6666666700000000    0.3333333300000000    0.5826908900000000 O
   0.3333333300000000    0.6666666700000000    0.4172599000000000 O
   0.3333333300000000    0.6666666700000000    0.0827394100000000 O
   0.6666666700000000    0.3333333300000000    0.7500028100000000 Ag
   0.3333333300000000    0.6666666700000000    0.2499976100000000 Ag
