H4 Br4 O12
1.0
   5.6866882099999998    0.0000000000000000    0.0000000000000000
   0.0000000000000000    6.1771120899999996    0.0000000000000000
   0.0000000000000000    0.0000000000000000    8.4589224000000005
H O Br
4 12 4
direct
   0.7869363200000000    0.8031834500000000    0.3444619700000000 H
   0.7130636800000000    0.1968165500000000    0.8444619700000000 H
   0.2869363200000000    0.6968165500000000    0.6555380300000000 H
   0.2130636800000000    0.3031834500000000    0.1555380300000000 H
   0.9369803300000000    0.0088952000000000    0.2504309900000000 O
   0.5630196700000000    0.9911048000000000    0.7504309900000000 O
   0.4369803300000000    0.4911048000000000    0.7495690100000000 O
   0.0630196700000000    0.5088952000000000    0.2495690100000000 O
   0.6868720699999999    0.6887605700000000    0.3973092800000000 O
   0.8131279300000001    0.3112394300000000    0.8973092800000000 O
   0.1868720700000000    0.8112394300000000    0.6026907200000000 O
   0.3131279300000000    0.1887605700000000    0.1026907200000000 O
   0.5646931800000000    0.6287918100000000    0.0396302000000000 O
   0.9353068200000000    0.3712081900000000    0.5396301999999999 O
   0.0646931800000000    0.8712081900000000    0.9603698000000001 O
   0.4353068200000000    0.1287918100000000    0.4603698000000000 O
   0.8366058400000000    0.4316097400000000    0.3628983400000000 Br
   0.6633941600000000    0.5683902600000000    0.8628983400000000 Br
   0.3366058400000000    0.0683902600000000    0.6371016600000000 Br
   0.1633941600000000    0.9316097400000000    0.1371016600000000 Br
