Li2 Tm1 Ta2 O7
1.0
   3.9474708500000002    0.0000000000000000    0.0000000000000000
   0.0000000000000000    3.9474708500000002    0.0000000000000000
  -1.9737354199999999   -1.9737354199999999    9.2974025499999993
Tm Li O Ta
1 2 7 2
direct
   0.0000000000000000    0.0000000000000000    0.0000000000000000 Tm
   0.7500000000000000    0.2500000000000000    0.5000000000000000 Li
   0.2500000000000000    0.7500000000000000    0.5000000000000000 Li
   0.7126367700000000    0.7126367700000000    0.4252735500000000 O
   0.5000000000000000    0.5000000000000000    0.0000000000000000 O
   0.0895016400000000    0.5895016400000000    0.1790032900000000 O
   0.5895016400000000    0.0895016400000000    0.1790032900000000 O
   0.4104983600000000    0.9104983600000000    0.8209967100000000 O
   0.9104983600000000    0.4104983600000000    0.8209967100000000 O
   0.2873632300000000    0.2873632300000000    0.5747264500000000 O
   0.6094755600000000    0.6094755600000000    0.2189511100000000 Ta
   0.3905244400000000    0.3905244400000000    0.7810488900000000 Ta
