Y2 Sc2 O6
1.0
   5.6359476099999997    0.0000000000000000    0.0000000000000000
   0.0000000000000000    5.6359476099999997    0.0000000000000000
  -2.8179738099999998   -2.8179738099999998    3.9867216299999999
Y Sc O
2 2 6
direct
   0.2500000000000000    0.7500000000000000    0.5000000000000000 Y
   0.7500000000000000    0.2500000000000000    0.5000000000000000 Y
   0.0000000000000000    0.0000000000000000    0.0000000000000000 Sc
   0.5000000000000000    0.5000000000000000    0.0000000000000000 Sc
   0.6641832100000000    0.1641832100000000    0.0000000000000000 O
   0.8358167900000000    0.6641832100000000    0.0000000000000000 O
   0.1641832100000000    0.3358167900000000    0.0000000000000000 O
   0.3358167900000000    0.8358167900000000    0.0000000000000000 O
   0.2500000000000000    0.2500000000000000    0.5000000000000000 O
   0.7500000000000000    0.7500000000000000    0.5000000000000000 O
