Ba2 V2 O6
1.0
   5.6376232499999999   -0.0000600500000000   -0.0001656600000000
  -0.0001652900000000    5.6376617700000002   -0.0000524900000000
  -2.8186575600000001   -2.8188042800000002    4.0962332600000000
Ba O V
2 6 2
direct
   0.2499721700000000    0.7500181100000000    0.5000096700000000 Ba
   0.7500278300000000    0.2499818900000000    0.4999903300000000 Ba
   0.7367363000000000    0.7366690400000000    0.9997938800000000 O
   0.2368215800000000    0.7632143100000000    0.9999734300000001 O
   0.7631784200000000    0.2367856900000000    0.0000265700000000 O
   0.2632637000000000    0.2633309600000000    0.0002061200000000 O
   0.2499617400000000    0.2499058200000000    0.4999840400000000 O
   0.7500382600000000    0.7500941800000001    0.5000159600000000 O
   0.0000000000000000    0.0000000000000000    0.0000000000000000 V
   0.5000000000000000    0.5000000000000000    0.0000000000000000 V
