Li2 Dy1 Nb2 O7
1.0
   4.0622085600000002   -0.0000955300000000    0.0000567200000000
  -0.0000898900000000    3.9549531899999999    0.0003992700000000
  -2.0309444100000000   -1.9776942099999999    9.1961731100000002
Nb Li O Dy
2 2 7 1
direct
   0.6249284899999999    0.6138160700000000    0.2276855500000000 Nb
   0.3977013100000000    0.3862020100000000    0.7723364700000001 Nb
   0.2295097600000000    0.7403997900000000    0.4803011900000000 Li
   0.7497620100000000    0.2595665000000000    0.5196926200000000 Li
   0.0965497500000000    0.6023088300000000    0.2044980400000000 O
   0.2671305800000000    0.2829572100000000    0.5659856700000000 O
   0.4235021900000000    0.9114094500000000    0.8227476100000000 O
   0.8924150199999999    0.3977166400000000    0.7954501700000000 O
   0.7009677200000000    0.7170112300000000    0.4340498200000000 O
   0.6001423100000000    0.0886475900000000    0.1773633900000000 O
   0.4125471600000000    0.4999805600000000    0.9999905500000000 O
   0.1047566900000000    0.9999211300000000    0.9999349199999999 Dy
