Y2 Ni1 Ge1 O6
1.0
   5.3685586499999998    0.0020812800000000    0.0021498000000000
   2.6823493200000001    4.7992050300000004    0.0415578600000000
   2.6807487499999998    1.6321826399999999    4.4267992500000002
Y Ni Ge O
2 1 1 6
direct
   0.7515425800000000    0.7267833400000000    0.7715121200000000 Y
   0.2492232400000000    0.2740220600000000    0.2292924000000000 Y
   0.0003914800000000    0.0003857100000000    0.0003761400000000 Ni
   0.5003922800000000    0.5003920800000000    0.5003974100000000 Ge
   0.2657287600000000    0.8459555100000000    0.6244640700000000 O
   0.8092615300000000    0.6743818499999999    0.1975828500000000 O
   0.6803076200000000    0.3262348100000000    0.8033869100000000 O
   0.3204678800000000    0.6745732500000000    0.1974217400000000 O
   0.1915153800000000    0.3264216700000000    0.8032293100000000 O
   0.7350762600000000    0.1548517100000000    0.3763390400000000 O
