Eu2 Zr1 W1 O6
1.0
   5.8553977200000000    0.0000000000000000    0.0000000000000000
   2.9276988600000000    5.0709231700000004    0.0000000000000000
   2.9276988600000000    1.6903077200000001    4.7809122100000003
Eu O Zr W
2 6 1 1
direct
   0.2500000000000000    0.2500000000000000    0.2500000000000000 Eu
   0.7500000000000000    0.7500000000000000    0.7500000000000000 Eu
   0.2481824100000000    0.7518175900000000    0.7518175900000000 O
   0.7518175900000000    0.2481824100000000    0.7518175900000000 O
   0.2481824100000000    0.7518175900000000    0.2481824100000000 O
   0.7518175900000000    0.7518175900000000    0.2481824100000000 O
   0.7518175900000000    0.2481824100000000    0.2481824100000000 O
   0.2481824100000000    0.2481824100000000    0.7518175900000000 O
   0.5000000000000000    0.5000000000000000    0.5000000000000000 Zr
   0.0000000000000000    0.0000000000000000    0.0000000000000000 W
