K5 Bi1 O5
1.0
   5.6012963400000002   -0.0001522600000000   -0.0002311500000000
  -2.8006436699999999    5.9762314200000004    0.0316814300000000
  -0.0003219900000000   -2.5268640200000001    6.8557826899999998
K Bi O
5 1 5
direct
   0.3224070300000000    0.6618378100000000    0.1566804200000000 K
   0.2962033100000000    0.6175492500000000    0.6920159000000000 K
   0.6787639600000001    0.3826966100000000    0.3100900700000000 K
   0.6607198200000000    0.3384037300000000    0.8454288000000000 K
   0.9960191400000000    0.0001101900000000    0.5010826800000000 K
   0.9491758500000000    0.0001131800000000    0.0010862800000000 Bi
   0.8791129200000000    0.7390974500000000    0.1389487800000000 O
   0.8629048600000000    0.7204667000000000    0.7190841000000000 O
   0.1426601800000000    0.2797630500000000    0.2831028800000000 O
   0.1401713100000000    0.2611421200000000    0.8631912500000000 O
   0.5782686200000000    0.0000998900000000    0.0010528300000000 O
