Ba2 Ce1 Te1 O6
1.0
   6.1836197300000002   -0.0159395700000000   -0.0112999800000000
   3.0548571000000000    5.3763584199999999   -0.0113238800000000
   3.0548667200000001    1.7725375200000000    5.0757675799999999
O Te Ba Ce
6 1 2 1
direct
   0.6899165900000001    0.2558460400000000    0.8018021500000000 O
   0.2558479400000000    0.8018033600000000    0.6899150900000000 O
   0.8018032800000000    0.6899153099999999    0.2558442500000000 O
   0.3100834100000000    0.7441539600000000    0.1981978500000000 O
   0.1981967200000000    0.3100846900000000    0.7441557500000000 O
   0.7441520600000000    0.1981966400000000    0.3100849100000000 O
   0.5000000000000000    0.5000000000000000    0.5000000000000000 Te
   0.7487968600000000    0.7487972500000000    0.7487977500000000 Ba
   0.2512031400000000    0.2512027500000000    0.2512022500000000 Ba
   0.0000000000000000    0.0000000000000000    0.0000000000000000 Ce
