Sr2 Mn1 B2 O6
1.0
   5.2357981499999999    0.0000000000000000    0.0000000000000000
  -2.6178990799999999    4.6286510800000000   -0.0092699200000000
   0.0000000000000000   -3.0292293400000001    5.5488800300000003
Sr B Mn O
2 2 1 6
direct
   0.7073663800000000    0.4147327500000000    0.1878874300000000 Sr
   0.2926336200000000    0.5852672500000000    0.8121125700000000 Sr
   0.9452171700000001    0.8904343300000001    0.7425325100000000 B
   0.0547828300000000    0.1095656700000000    0.2574674900000000 B
   0.5000000000000000    0.0000000000000000    0.5000000000000000 Mn
   0.7770281300000000    0.5540562600000000    0.6557018200000000 O
   0.1961742200000000    0.9345781800000000    0.2172076500000000 O
   0.2615960400000000    0.0654218200000000    0.7827923500000000 O
   0.8038257800000000    0.0654218200000000    0.7827923500000000 O
   0.7384039600000000    0.9345781800000000    0.2172076500000000 O
   0.2229718700000000    0.4459437400000000    0.3442981800000000 O
