Gd2 Mg1 Ni1 O6
1.0
   5.3081037799999997   -0.0437952500000000   -0.0312916000000000
   2.5178612700000000    4.6732560999999997   -0.0312992300000000
   2.5178434699999999    1.4894295900000001    4.4296206199999997
Ni Mg Gd O
1 1 2 6
direct
   0.0000000000000000    0.0000000000000000    0.0000000000000000 Ni
   0.5000000000000000    0.5000000000000000    0.5000000000000000 Mg
   0.7559424700000000    0.7559623100000000    0.7559490100000000 Gd
   0.2440575300000000    0.2440376900000000    0.2440509900000000 Gd
   0.3218484500000000    0.7702162600000000    0.1572816900000000 O
   0.7701697100000000    0.1572819000000000    0.3218448100000000 O
   0.1572648700000000    0.3218589900000000    0.7701899600000000 O
   0.6781515500000000    0.2297837400000000    0.8427183100000000 O
   0.8427351300000000    0.6781410100000000    0.2298100400000000 O
   0.2298302900000000    0.8427181000000000    0.6781551900000000 O
