Yb2 Mg1 Pd1 O6
1.0
   5.3621705000000004   -0.0435421200000000   -0.0318508800000000
   2.4979155999999998    4.7461436900000002   -0.0318955000000000
   2.4974034700000001    1.4941304500000001    4.5032329700000000
Mg Yb O Pd
1 2 6 1
direct
   0.5000000000000000    0.5000000000000000    0.5000000000000000 Mg
   0.7571579700000000    0.7570778200000000    0.7568800300000000 Yb
   0.2428420300000000    0.2429221800000000    0.2431199700000000 Yb
   0.3379575200000000    0.7646926600000000    0.1554488200000000 O
   0.7647796400000000    0.1556881900000000    0.3377923900000000 O
   0.1555778900000000    0.3377759700000000    0.7643303900000000 O
   0.6620424800000000    0.2353073400000000    0.8445511800000000 O
   0.8444221100000000    0.6622240300000000    0.2356696100000000 O
   0.2352203600000000    0.8443118100000000    0.6622076099999999 O
   0.0000000000000000    0.0000000000000000    0.0000000000000000 Pd
