Ca2 C2 O6
1.0
   3.9241089699999998   -0.0112852400000000   -0.4845241500000000
   0.0178570600000000    5.0439705699999999    0.0269790900000000
  -0.9670627500000000   -0.0305834000000000    6.4203280100000004
Ca C O
2 2 6
direct
   0.9421139500000000    0.9846878200000000    0.5166602200000000 Ca
   0.5584709900000000    0.4847219400000000    0.9846915400000000 Ca
   0.9921440500000001    0.0016920500000000    0.0059564300000000 C
   0.5083839600000000    0.5016550000000000    0.4953417900000000 C
   0.0628041900000000    0.7540469500000000    0.9867593500000000 O
   0.4343634400000000    0.6787756100000000    0.6240761200000000 O
   0.4377426400000000    0.2539994800000000    0.5145081700000000 O
   0.8305883200000000    0.0784156400000000    0.1442467100000000 O
   0.6700202800000000    0.5784198699999999    0.3570965000000000 O
   0.0661791900000000    0.1788486400000000    0.8772421700000000 O
