Nb2 Cd2 O7
1.0
   5.5093843299999996    0.1043139800000000    0.1386218900000000
  -0.7829052399999999    5.8331893700000004   -0.1846303200000000
  -0.7829052300000000   -1.7927442000000000    5.5539404799999996
Nb O Cd
2 7 2
direct
   0.8963636200000000    0.2511171800000000    0.2511171800000000 Nb
   0.1036363800000000    0.7488828199999999    0.7488828199999999 Nb
   0.2910800100000000    0.9324143400000000    0.6043568100000000 O
   0.7089199900000001    0.3956431900000000    0.0675856600000000 O
   0.7089199900000001    0.0675856600000000    0.3956431900000000 O
   0.2910800100000000    0.6043568100000000    0.9324143400000000 O
   0.0000000000000000    0.0000000000000000    0.0000000000000000 O
   0.7887255800000000    0.5670511800000000    0.5670511800000000 O
   0.2112744200000000    0.4329488200000000    0.4329488200000000 O
   0.5000000000000000    0.3101968300000000    0.6898031700000000 Cd
   0.5000000000000000    0.6898031700000000    0.3101968300000000 Cd
