Ba2 La1 Nb1 O6
1.0
   6.2084474099999998    0.0000000000000000    0.0000000000000000
   3.1042237099999999    5.3766731800000001    0.0000000000000000
   3.1042237099999999    1.7922243899999999    5.0691760900000000
Nb Ba O La
1 2 6 1
direct
   0.5000000000000000    0.5000000000000000    0.5000000000000000 Nb
   0.7500000000000000    0.7500000000000000    0.7500000000000000 Ba
   0.2500000000000000    0.2500000000000000    0.2500000000000000 Ba
   0.2693871400000000    0.7306128600000000    0.7306128600000000 O
   0.7306128600000000    0.2693871400000000    0.7306128600000000 O
   0.2693871400000000    0.7306128600000000    0.2693871400000000 O
   0.7306128600000000    0.7306128600000000    0.2693871400000000 O
   0.7306128600000000    0.2693871400000000    0.2693871400000000 O
   0.2693871400000000    0.2693871400000000    0.7306128600000000 O
   0.0000000000000000    0.0000000000000000    0.0000000000000000 La
