Rb2 In2 O2
1.0
   3.6202713100000001   -0.0001159100000000    0.0002177700000000
  -0.0002426200000000    6.5581176200000000    0.0299062100000000
  -1.8109816400000001   -1.9684974000000000    6.6182430300000004
O Rb In
2 2 2
direct
   0.7492733000000000    0.1919680500000000    0.4984846300000000 O
   0.2507267000000000    0.8080319500000001    0.5015153700000000 O
   0.1164628800000000    0.3376476000000000    0.2329320400000000 Rb
   0.8835371200000000    0.6623524000000000    0.7670679600000000 Rb
   0.6520648700000000    0.8541919800000000    0.3043145700000000 In
   0.3479351300000000    0.1458080200000000    0.6956854300000000 In
