Ba2 Ta1 V1 O6
1.0
   5.7948411399999999    0.0000000000000000    0.0000000000000000
   2.8974205700000000    5.0184796399999998    0.0000000000000000
   2.8974205700000000    1.6728265499999999    4.7314679799999997
V Ba O Ta
1 2 6 1
direct
   0.0000000000000000    0.0000000000000000    0.0000000000000000 V
   0.2500000000000000    0.2500000000000000    0.2500000000000000 Ba
   0.7500000000000000    0.7500000000000000    0.7500000000000000 Ba
   0.2536590600000000    0.7463409400000000    0.7463409400000000 O
   0.7463409400000000    0.2536590600000000    0.7463409400000000 O
   0.2536590600000000    0.7463409400000000    0.2536590600000000 O
   0.7463409400000000    0.7463409400000000    0.2536590600000000 O
   0.7463409400000000    0.2536590600000000    0.2536590600000000 O
   0.2536590600000000    0.2536590600000000    0.7463409400000000 O
   0.5000000000000000    0.5000000000000000    0.5000000000000000 Ta
