Ho2 Ag2 O4
1.0
   3.5111654400000001    0.0000000000000000    0.0000000000000000
  -1.7555827200000000    3.0407584700000001    0.0000000000000000
   0.0000000000000000    0.0000000000000000   12.5335523299999991
O Ho Ag
4 2 2
direct
   0.6666666700000000    0.3333333300000000    0.9166381500000000 O
   0.6666666700000000    0.3333333300000000    0.5833623500000000 O
   0.3333333300000000    0.6666666700000000    0.4166376800000000 O
   0.3333333300000000    0.6666666700000000    0.0833628200000000 O
   0.0000000000000000    0.0000000000000000    0.0000005700000000 Ho
   0.0000000000000000    0.0000000000000000    0.4999999300000000 Ho
   0.6666666700000000    0.3333333300000000    0.7500002500000000 Ag
   0.3333333300000000    0.6666666700000000    0.2500002500000000 Ag
