Na2 Yb2 O4
1.0
   4.7228809600000003    0.0000000000000000    0.0000000000000000
   0.0000000000000000    4.7228809600000003    0.0000000000000000
  -2.3614404800000002   -2.3614404800000002    4.8882299600000003
Na Yb O
2 2 4
direct
   0.5000000000000000    0.5000000000000000    0.0000000000000000 Na
   0.7500000000000000    0.2500000000000000    0.5000000000000000 Na
   0.0000000000000000    0.0000000000000000    0.0000000000000000 Yb
   0.2500000000000000    0.7500000000000000    0.5000000000000000 Yb
   0.7713748700000000    0.7713748700000000    0.5427497300000000 O
   0.4786251300000000    0.9786251300000000    0.9572502700000000 O
   0.0213748700000000    0.5213748700000000    0.0427497300000000 O
   0.2286251300000000    0.2286251300000000    0.4572502700000000 O
