Ca2 Te2 O6
1.0
   4.0570721100000000    0.0000000000000000    0.4546152800000000
   0.0000000000000000    5.5254134900000000    0.0000000000000000
  -1.1210635099999999    0.0000000000000000    7.2503971600000003
Ca Te O
2 2 6
direct
   0.7412177900000000    0.7500000000000000    0.3826229800000000 Ca
   0.2587822100000000    0.2500000000000000    0.6173770200000001 Ca
   0.7724931900000001    0.7500000000000000    0.8361239200000000 Te
   0.2275068100000000    0.2500000000000000    0.1638760800000000 Te
   0.2383549100000000    0.5016441600000000    0.3427715500000000 O
   0.7616450900000000    0.0016441600000000    0.6572284500000000 O
   0.7616450900000000    0.4983558400000000    0.6572284500000000 O
   0.2383549100000000    0.9983558400000000    0.3427715500000000 O
   0.7241894400000000    0.2500000000000000    0.1622681200000000 O
   0.2758105600000000    0.7500000000000000    0.8377318800000000 O
