Ce2 Y2 O6
1.0
   6.0102426700000002    0.0000000000000000    0.0000000000000000
   0.0000000000000000    6.0102426700000002    0.0000000000000000
  -3.0051213400000001   -3.0051213400000001    4.2715086800000002
Y O Ce
2 6 2
direct
   0.0000000000000000    0.0000000000000000    0.0000000000000000 Y
   0.5000000000000000    0.5000000000000000    0.0000000000000000 Y
   0.6553709500000000    0.1553709500000000    0.0000000000000000 O
   0.8446290500000000    0.6553709500000000    0.0000000000000000 O
   0.1553709500000000    0.3446290500000000    0.0000000000000000 O
   0.3446290500000000    0.8446290500000000    0.0000000000000000 O
   0.2500000000000000    0.2500000000000000    0.5000000000000000 O
   0.7500000000000000    0.7500000000000000    0.5000000000000000 O
   0.2500000000000000    0.7500000000000000    0.5000000000000000 Ce
   0.7500000000000000    0.2500000000000000    0.5000000000000000 Ce
