Cs2 Al2 O4
1.0
   5.1773281200000003    0.0000000000000000    0.0094184700000000
   0.0000000000000000    5.4323934200000004    0.0000000000000000
  -2.6026299700000002    0.0000000000000000    6.4476824199999996
Cs Al O
2 2 4
direct
   0.6999906700000000    0.2500000000000000    0.3999307500000000 Cs
   0.3000093300000000    0.7500000000000000    0.6000692500000000 Cs
   0.0018026800000000    0.7500000000000000    0.0036375600000000 Al
   0.9981973200000001    0.2500000000000000    0.9963624400000000 Al
   0.9059831600000000    0.9975795600000000    0.8096702300000000 O
   0.0940168400000000    0.4975795600000000    0.1903297700000000 O
   0.9059831600000000    0.5024204400000000    0.8096702300000000 O
   0.0940168400000000    0.0024204400000000    0.1903297700000000 O
