Ce1 O2
1.0
   3.8628748900000001   -0.0000000000000000   -0.0000000000000000
  -0.0000000000000000    3.8627943299999998   -0.0000000000000000
   1.9314374450000000    1.9313971649999999    2.7315702250000000
Ce O
1 2
direct
   0.0000000000000000    0.0000000000000000    0.5000000000000000 Ce
   0.2500214600000001    0.7500214600000001    0.9999570799999998 O
   0.7499785400000000    0.2499785400000000    0.0000429200000001 O
