System
1.0
5.217373 -0.009491 0.0
-0.00975 5.342903 0.0
0.0 0.0 7.463048
Mn O Yb
4 11 4
direct
0.5040002896260586 0.000185906288074135 0.003559999045966461 
0.5040002896260586 0.000185906288074135 0.49599986707847327 
0.9930005711576073 0.5010000964682635 0.5089998635946429 
0.9930005711576073 0.5010000964682635 0.9909997344249335 
0.7980004593979821 0.7850002922307523 0.05629998491233477 
0.7160004117590103 0.29200003067764563 0.05699998472474391 
0.4140002389352707 0.9800004732013504 0.24999993300326273 
0.7160004117590103 0.29200003067764563 0.4429998812817816 
0.7980004593979821 0.7850002922307523 0.4439998810137946 
0.20500011802662169 0.2120000808774397 0.53099985769893 
0.2950001702586324 0.701000338695419 0.53099985769893 
0.5830003350470724 0.02239990405577434 0.7499997990097881 
0.9050005206163433 0.5280001280092551 0.7499997990097881 
0.2950001702586324 0.701000338695419 0.9689997403206463 
0.20500011802662169 0.2120000808774397 0.9689997403206463 
0.9860005666607435 0.0489998439756706 0.24999993300326273 
0.5120002948054594 0.5550002163240382 0.24999993300326273 
0.4770002745813267 0.44900016332062676 0.7499997990097881 
0.01770001117451288 0.9560005334941785 0.7499997990097881 
