System
1.0
6.512909 0.0 0.0
0.0 8.329794 0.0
0.0 0.0 14.084386
Cu As O
16 8 36
direct
0.24999996161470067 0.3650571753018984 0.05038698568997309 
0.749999884844102 0.6349433049022846 0.9496127303076669 
0.24999996161470067 0.8650574154039897 0.4496128723088469 
0.749999884844102 0.13494306480019305 0.550386843688793 
0.5072329221188379 0.352973169499111 0.8451487599756895 
0.007232998889436519 0.6470273107050718 0.15485095602195054 
0.9927668475693661 0.8529734096012025 0.6548508140207705 
0.49276692433996483 0.14702707060298037 0.3451489019768694 
0.49276692433996483 0.6470273107050718 0.15485095602195054 
0.9927668475693661 0.352973169499111 0.8451487599756895 
0.007232998889436519 0.14702707060298037 0.3451489019768694 
0.5072329221188379 0.8529734096012025 0.6548508140207705 
0.24999996161470067 0.5735832754369558 0.5867578333593433 
0.749999884844102 0.42641720476722705 0.41324188263829675 
0.24999996161470067 0.07358303533486439 0.9132417406371167 
0.749999884844102 0.9264174448693185 0.08675797536052324 
0.24999996161470067 0.5004282403076188 0.3435279024372373 
0.749999884844102 0.49957223989656413 0.6564718135604029 
0.24999996161470067 0.00042800020552739024 0.15647195556158272 
0.749999884844102 0.9995724799986556 0.8435277604360573 
0.24999996161470067 0.155772074802366 0.5904458323119426 
0.749999884844102 0.8442284054018169 0.40955388368569745 
0.24999996161470067 0.6557723149044574 0.9095537416845174 
0.749999884844102 0.34422816529972544 0.09044697431283855 
0.24999996161470067 0.3539611699735528 0.6158558250954425 
0.749999884844102 0.6460393102306302 0.38414389090219736 
0.24999996161470067 0.8539614100756442 0.8841437489010174 
0.749999884844102 0.14603907012853867 0.11585596709662259 
0.24999996161470067 0.31065814917927104 0.9083737420196402 
0.749999884844102 0.6893423310249118 0.09162597397799975 
0.24999996161470067 0.8106583892813626 0.5916258319768197 
0.749999884844102 0.18934209092282042 0.4083738840208202 
0.5333289181120268 0.6200752977626088 0.647934815984931 
0.03332899488262543 0.3799251824415742 0.3520649000127091 
0.9666708515761772 0.12007505766051728 0.8520647580115291 
0.46667092834677587 0.8799254225436656 0.1479349579861109 
0.46667092834677587 0.3799251824415742 0.3520649000127091 
0.9666708515761772 0.6200752977626088 0.647934815984931 
0.24999996161470067 0.6303353026895036 0.43908687529825574 
0.03332899488262543 0.8799254225436656 0.1479349579861109 
0.4749919270691596 0.5816902793299712 0.8580527563109229 
0.974991850298561 0.4183102008742118 0.141946959686717 
0.025007996160241734 0.0816900392278797 0.6419468176855371 
0.5250079193896431 0.9183104409763032 0.358052898312103 
0.5250079193896431 0.4183102008742118 0.141946959686717 
0.025007996160241734 0.5816902793299712 0.8580527563109229 
0.974991850298561 0.9183104409763032 0.358052898312103 
0.4749919270691596 0.0816900392278797 0.6419468176855371 
0.749999884844102 0.885143425049371 0.7386317902267688 
0.24999996161470067 0.11485705515481184 0.26136792577087115 
0.749999884844102 0.3851431849472796 0.7613677837696912 
0.24999996161470067 0.6148572952569032 0.23863193222794885 
0.749999884844102 0.8996144319984059 0.5286788498539163 
0.24999996161470067 0.10038604820577711 0.47132086614372365 
0.749999884844102 0.3996141918963144 0.9713207241425437 
0.24999996161470067 0.6003862883078686 0.028678991855096314 
0.749999884844102 0.8696654176167707 0.9390867332970758 
0.24999996161470067 0.1303350625874122 0.06091298270056424 
0.749999884844102 0.3696651775146793 0.5609128406993843 
0.5333289181120268 0.12007505766051728 0.8520647580115291 
