System
1.0
4.066123 0.0 0.0
0.0 4.066123 0.0
0.0 0.0 4.066123
Er Hf O
1 1 3
direct
0.0 0.0 0.0 
0.5000003689020491 0.5000003689020491 0.5000003689020491 
0.5000003689020491 0.5000003689020491 0.0 
0.5000003689020491 0.0 0.5000003689020491 
0.0 0.5000003689020491 0.5000003689020491 
