System
1.0
6.057687 0.0 -0.012617
0.0 14.898138 0.0
-2.149735 0.0 7.858734
Al O P
4 36 12
direct
0.3869999794695726 0.8599998845493464 0.11800020776142021 
0.6130001638581433 0.3599999516718194 0.3820004287038605 
0.38700048276926446 0.6399999140832345 0.6180004630636944 
0.6130006671578352 0.13999998120570756 0.8820006840061346 
0.3479999653236968 0.5699999234803806 0.0900001785991356 
0.07710006445066421 0.8829998814617127 0.09160007615904443 
0.3339999792213791 0.7379999009272298 0.09880017775617354 
0.9649997673793729 0.3439999538197385 0.11400042603121975 
0.6669998806906181 0.12699998295089185 0.1200003155082711 
0.6939998860703653 0.8379998875027351 0.13500033345874055 
0.5549999441592652 0.34699995341700374 0.143000284561919 
0.43999999662863565 0.9849998677687282 0.1540002463448233 
0.8789999332212802 0.9879998673659933 0.24800046167221068 
0.12100021010643562 0.4879999344884663 0.25200017479306996 
0.5600001466990803 0.48499993489120113 0.34600039012045736 
0.4450001991684507 0.8469998862945306 0.35700035190336166 
0.3060002572573504 0.3379999546252082 0.3650003030065401 
0.33300026263709787 0.6269999158284187 0.38000032095700953 
0.03540037580435424 0.8439998866972654 0.38600021058652617 
0.6660001639050169 0.2379999680497028 0.40100045860698624 
0.9230000784384148 0.3829999485841857 0.40800056014011066 
0.652000178004019 0.06999999060285378 0.41000045786614503 
0.34800046862338874 0.9299998751522002 0.5900004339014098 
0.07710056815299593 0.6169999171708682 0.5920003316655604 
0.3340004827223909 0.7619998977053511 0.5990004331605686 
0.9650002706790648 0.1559999790577884 0.614000681333494 
0.6670003839903101 0.3729999499266351 0.6200005708105454 
0.6940003893700574 0.6619999111298457 0.6350005887610147 
0.5550004474589572 0.15299997946052324 0.6430005398641933 
0.44000049992832757 0.5149999308638528 0.6540005016470976 
0.8790004365209722 0.5119999312665876 0.7480007169744849 
0.12100071340612761 0.012399998335362669 0.7520004300953442 
0.5600006499987723 0.014699998026599291 0.8460006454227316 
0.4450007024681426 0.6529999123380502 0.8570006072056358 
0.30600076055704234 0.16199997825231874 0.8650005583088143 
0.33300076593678984 0.8729998828041621 0.8800005762592839 
0.035400879104046185 0.6559999119353155 0.8860004658888003 
0.6660006672047089 0.2619999648278241 0.9010007139092604 
0.9230005817381066 0.11699998429334132 0.908000815442385 
0.652000681303711 0.4299999422746732 0.9100007131684194 
0.6959997685848928 0.3389999544909633 0.01900027499093891 
0.9159998735987455 0.8849998811932227 0.2020004522874327 
0.6459999879033684 0.044299994052948884 0.21900035805369827 
0.3540001554243473 0.5439999269707494 0.2810002784115824 
0.08360026987295918 0.38499994831569573 0.29800018402538275 
0.3040003747428229 0.8389998873684902 0.4810003614743417 
0.6960002718845848 0.16099997838656369 0.5190005302932131 
0.9160003768984374 0.6149999174393581 0.7020007075897069 
0.6460004912030605 0.4559999387843046 0.7190006133559724 
0.35400065872403924 0.9559998716618314 0.7810005337138566 
0.08360077317265117 0.1149999845618312 0.7980004393276571 
0.30400087804251485 0.6609999112640906 0.981000616776616 
