System
1.0
3.12853 -5.089015 0.005003
3.12853 5.089015 0.005003
-2.871736 0.0 9.55841
Na O Ta
10 10 2
direct
0.7840001119210732 0.5550003369152764 0.04950042002339493 
0.32399994388910525 0.009230253152971359 0.07910010448440584 
0.33000047074894534 0.6700001366964166 0.2500003135419775 
0.9910003542764149 0.6760006637662577 0.42100052267163535 
0.4450002708495713 0.2160004958437746 0.45100020706022587 
0.5550006560813213 0.7840004310871181 0.5490004196894837 
0.00923057257460477 0.3240002633107387 0.5790001041502272 
0.6700004561819471 0.330000790234476 0.750000313207732 
0.6760009832517883 0.9910006737619454 0.9210005223373899 
0.21600081532930498 0.4450005903351019 0.9510002067259802 
0.594000373441128 0.8080001631845365 0.10400043975063548 
0.9609999341405143 0.3040005796479008 0.11700039676379836 
0.09430070251651858 0.9059999050152315 0.25000031363609027 
0.6960000276068911 0.03870067340902986 0.3830002302260439 
0.19200044426082566 0.4060002340042341 0.39600018733331954 
0.8080004826700671 0.5940006929266586 0.60400043941639 
0.30400089913343137 0.961000253626045 0.6170003964295528 
0.9060002245007621 0.0943010220020491 0.7500003133018447 
0.038700992894560415 0.6960003470924219 0.8830002298917985 
0.4060005534897646 0.1920007637463563 0.8960001869990741 
0.9069999035880605 0.0926007037421175 0.25000031341649387 
0.09260102322764822 0.9070002230735912 0.7500003130822485 
