System
1.0
3.439472 0.0 0.0
0.0 3.439472 0.0
0.0 0.0 3.439472
Ag B O
1 1 3
direct
0.0 0.0 0.0 
0.500000290742469 0.500000290742469 0.500000290742469 
0.500000290742469 0.500000290742469 0.0 
0.500000290742469 0.0 0.500000290742469 
0.0 0.500000290742469 0.500000290742469 
