System
1.0
5.668643 0.0 0.0
0.0 8.720383 0.0
0.0 0.0 15.190287
K Ta V O
4 4 8 32
direct
0.2500001323068673 0.9484223262777539 0.876627826870718 
0.2500001323068673 0.5515781897548042 0.3766279256180099 
0.7500003969206018 0.05157801774395152 0.1233719756346982 
0.7500003969206018 0.4484221542669012 0.6233718768874064 
0.2500001323068673 0.812558279537589 0.6177768779923887 
0.2500001323068673 0.6874422364949692 0.1177769767396804 
0.7500003969206018 0.1874420644841165 0.3822229245130277 
0.7500003969206018 0.31255810752673624 0.8822228257657359 
0.2500001323068673 0.5123481762588328 0.7862328447232408 
0.2500001323068673 0.9876523397737254 0.2862329434705328 
0.7500003969206018 0.4876521677628726 0.21376695778217533 
0.7500003969206018 0.01234800424798002 0.7137668590348835 
0.2500001323068673 0.20801607156201907 0.5277318957757884 
0.2500001323068673 0.29198410044883366 0.027731994523080204 
0.7500003969206018 0.7919842724596863 0.47226790672962793 
0.7500003969206018 0.7080162435728719 0.9722678079823361 
0.00862900456670383 0.8984583090890534 0.7006358616281849 
0.4913712600470307 0.6015422069435047 0.2006359603754767 
0.5086292691804384 0.10154203493265201 0.2993639408772315 
0.9913715246607653 0.39845813707820066 0.7993638421299396 
0.9913715246607653 0.10154203493265201 0.2993639408772315 
0.5086292691804384 0.39845813707820066 0.7993638421299396 
0.4913712600470307 0.8984583090890534 0.7006358616281849 
0.00862900456670383 0.6015422069435047 0.2006359603754767 
0.9996695290522949 0.7337282524183579 0.5376428938184195 
0.5003312647889089 0.7662722636142002 0.03764299256571139 
0.49966926443856025 0.2662720916033476 0.4623569086869968 
0.0003310001751742923 0.23372808040750515 0.9623568099397048 
0.0003310001751742923 0.2662720916033476 0.4623569086869968 
0.49966926443856025 0.23372808040750515 0.9623568099397048 
0.5003312647889089 0.7337282524183579 0.5376428938184195 
0.9996695290522949 0.7662722636142002 0.03764299256571139 
0.2500001323068673 0.6174092124020971 0.6841748648791431 
0.2500001323068673 0.882591303630461 0.18417496362643504 
0.7500003969206018 0.3825911316196083 0.3158249376262731 
0.7500003969206018 0.1174090403912444 0.8158248388789813 
0.2500001323068673 0.010796003714058332 0.552591890866073 
0.2500001323068673 0.4892041682967944 0.05259198961336486 
0.7500003969206018 0.9892043403076471 0.44740791163934324 
0.7500003969206018 0.5107961757249111 0.9474078128920516 
0.2500001323068673 0.6386582197122143 0.8658068290078069 
0.2500001323068673 0.8613422963203439 0.3658069277550988 
0.7500003969206018 0.36134212430949103 0.13419297349760934 
0.7500003969206018 0.13865804770136164 0.6341928747503174 
0.7500003969206018 0.8108802789603206 0.8818288258435487 
0.7500003969206018 0.6891202370722376 0.38182892459084056 
0.2500001323068673 0.18912006506138493 0.11817097666186754 
0.2500001323068673 0.31088010694946777 0.6181708779145758 
