System
1.0
0.0 5.62769491 -0.0
0.0 -0.0 8.96742431
14.90228756 0.0 0.0
Nb Tl V O
4 4 8 32
direct
0.2500002181179134 0.9968280191039894 0.660079841922981 
0.2500002181179134 0.5031727018391581 0.16007992378959351 
0.7500006543537402 0.003172461524775532 0.33991999434379394 
0.7500006543537402 0.496827778789607 0.8399199124771815 
0.2500002181179134 0.4404833417088628 0.597679432140003 
0.2500002181179134 0.05951689860551972 0.09767951400661554 
0.7500006543537402 0.5595171389199023 0.40232040412677195 
0.7500006543537402 0.9404835820232452 0.9023203222601595 
0.2500002181179134 0.24586045816755156 0.8409279623121301 
0.2500002181179134 0.2541397821468309 0.3409280441787427 
0.7500006543537402 0.7541400224612135 0.15907187395464478 
0.7500006543537402 0.745860698481934 0.6590717920880322 
0.2500002181179134 0.8132983308943844 0.4376259883460738 
0.2500002181179134 0.686702390048763 0.9376259064794614 
0.7500006543537402 0.1867021497343805 0.5623738479207011 
0.7500006543537402 0.31329809058000196 0.062373929787313646 
0.9994414919836103 0.3480339072750266 0.8106547772688572 
0.50055981672387 0.15196633303935586 0.3106548591354697 
0.4994410557477835 0.6519665733537383 0.18934505899791776 
0.0005593804880431935 0.8480341475894091 0.6893449771313052 
0.0005593804880431935 0.6519665733537383 0.18934505899791776 
0.4994410557477835 0.8480341475894091 0.6893449771313052 
0.50055981672387 0.3480339072750266 0.8106547772688572 
0.9994414919836103 0.15196633303935586 0.3106548591354697 
0.9962909092348186 0.8539608104379324 0.37445984868847126 
0.5037103994726617 0.646039910505215 0.8744597668218588 
0.4962904729989918 0.14603967019083258 0.6255399875783036 
0.003709963236834936 0.3539605701235499 0.1255400694449162 
0.003709963236834936 0.14603967019083258 0.6255399875783036 
0.4962904729989918 0.3539605701235499 0.1255400694449162 
0.5037103994726617 0.8539608104379324 0.37445984868847126 
0.9962909092348186 0.646039910505215 0.8744597668218588 
0.2500002181179134 0.07440145575946261 0.7840261116288553 
0.2500002181179134 0.4255987845549199 0.2840261934954677 
0.7500006543537402 0.9255990248693022 0.21597372463791972 
0.7500006543537402 0.5744016960738452 0.7159736427713073 
0.2500002181179134 0.9192320118091343 0.5342344025280641 
0.2500002181179134 0.5807687091340132 0.034234484394676544 
0.7500006543537402 0.08076846881963076 0.46576543373871093 
0.7500006543537402 0.4192317714947517 0.9657653518720983 
0.2500002181179134 0.21642924402207026 0.9489959246178112 
0.2500002181179134 0.2835709962923122 0.4489960064844238 
0.7500006543537402 0.7835712366066947 0.05100391164896369 
0.7500006543537402 0.7164294843364528 0.5510038297823511 
0.2500002181179134 0.6333293443961544 0.4603067546324782 
0.2500002181179134 0.8666713765469931 0.9603066727658657 
0.7500006543537402 0.3666711362326106 0.5396930816342967 
0.7500006543537402 0.13332910408177184 0.03969316350090926 
