System
1.0
9.994733 0.0 0.0
0.0 3.331945 0.0
0.0 0.0 3.331945
Mo Na O
2 2 5
direct
0.0 0.0 0.0 
0.5000001500790916 0.0 0.0 
0.26200007864144403 0.5000007503136311 0.5000007503136311 
0.7380002215167393 0.5000007503136311 0.5000007503136311 
0.11700003511850746 0.5000007503136311 0.0 
0.8830002650396758 0.5000007503136311 0.0 
0.11700003511850746 0.0 0.5000007503136311 
0.8830002650396758 0.0 0.5000007503136311 
0.5000001500790916 0.5000007503136311 0.5000007503136311 
