System
1.0
3.017576 1.742198 4.92768
-3.017576 1.742198 4.92768
0.0 -3.484396 4.92768
Ni O Sn
4 8 2
direct
0.874999808671029 0.8749998086710289 0.37500038265794206 
0.875 0.8749999999999999 0.875 
0.8749997642731057 0.3750004270558653 0.874999808671029 
0.3750004270558653 0.8749997642731056 0.8749998086710289 
0.633999794704014 0.6339997947040141 0.09750041059197188 
0.6529995413420007 0.11600025317068449 0.1160002054873149 
0.11600025317068449 0.6529995413420007 0.1160002054873149 
0.116 0.116 0.11599999999999999 
0.6339997470650425 0.09750045823094361 0.6339997947040141 
0.09750045823094355 0.6339997470650424 0.6339997947040141 
0.634 0.634 0.634 
0.11600020548731488 0.11600020548731488 0.6529995890253703 
0.25 0.25 0.25 
0.5 0.5 0.5 
