System
1.0
8.731071 0.0 0.0
0.0 4.343788 0.0
0.0 0.0 4.343788
Ce O Yb
2 5 2
direct
0.23300002668630534 0.4999997697862926 0.4999997697862926 
0.7670000878471939 0.4999997697862926 0.4999997697862926 
0.15800001809629285 0.4999997697862926 0.0 
0.8420000964372063 0.4999997697862926 0.0 
0.15800001809629285 0.0 0.4999997697862926 
0.8420000964372063 0.0 0.4999997697862926 
0.5000000572667496 0.4999997697862926 0.4999997697862926 
0.0 0.0 0.0 
0.5000000572667496 0.0 0.0 
