System
1.0
2.494345952 -4.340258363 0.0
2.494345952 4.340258363 0.0
0.0 0.0 8.677555106
Al O Sr
4 8 2
direct
0.7279991038179343 0.26999927656012024 0.0 
0.2719992733143848 0.7299991005721989 0.0 
0.7299991005721989 0.2719992733143848 0.4999997180082881 
0.26999927656012024 0.7279991038179343 0.4999997180082881 
0.12099967470292236 0.327999596629489 0.0 
0.8789987024293968 0.6719987805028302 0.0 
0.4999994999914936 -3.1142533400229905e-07 0.14799991653045325 
-3.1142533400229905e-07 0.4999994999914936 0.3519998014778348 
0.32799959662948897 0.12099967470292229 0.4999997180082881 
0.6719987805028302 0.8789987024293968 0.4999997180082881 
-3.1142533400229905e-07 0.4999994999914936 0.6479996345387413 
0.4999994999914936 -3.1142533400229905e-07 0.8519995194861228 
0.0 0.0 0.24999985900414404 
0.0 0.0 0.7499995770124321 
