System
1.0
5.770451121 -2.223303077 0.0
5.770451121 2.223303077 0.0
-2.241907628 0.0 4.762277422
Na O Sb
2 4 2
direct
0.3520000791211805 0.3520000791211805 0.10699994207690434 
0.6480002155153208 0.6480002155153208 0.8929995165857532 
0.8690001690296029 0.8690001690296029 0.0021199988523648338 
0.6730001723946759 0.6730001723946759 0.4149997753450029 
0.3270001222418254 0.3270001222418254 0.5849996833176546 
0.13100012561894284 0.13100012561894284 0.9979994597453322 
0.1260000608117291 0.12600006081172907 0.361999804035882 
0.8740002338247722 0.8740002338247722 0.6379996546267754 
