System
1.0
4.269407 0.0 0.0
0.0 4.269407 0.0
0.0 0.0 4.286669
Bi O Rb
1 3 1
direct
0.49999964866339847 0.49999964866339847 0.5799998646968392 
0.49999964866339847 0.49999964866339847 0.07929998150079198 
0.49999964866339847 0.0 0.5809998644635579 
0.0 0.49999964866339847 0.5809998644635579 
0.0 0.0 0.08009998131416694 
