System
1.0
3.471004534 0.0 0.0
-1.735502267 3.005978103 0.0
0.0 0.0 12.892913156
Dy O Rb
2 4 2
direct
0.0 0.0 0.0 
0.0 0.0 0.50000012239285 
0.3329997888832316 0.666999579072715 0.08930002185936302 
0.3329997888832316 0.666999579072715 0.41100010060692266 
0.6670005487049739 0.33299978985189516 0.5890001441787773 
0.6670005487049739 0.33299978985189516 0.9110002229997728 
0.6670005487049739 0.33299978985189516 0.250000061196425 
0.3329997888832316 0.666999579072715 0.750000183589275 
