System
1.0
4.13541 0.0 0.0
0.0 4.13541 0.0
0.0 0.0 4.13541
Ca O W
1 3 1
direct
0.5 0.5 0.5 
0.5 0.5 0.0 
0.5 0.0 0.5 
0.0 0.5 0.5 
0.0 0.0 0.0 
