System
1.0
-6.492687 6.492687 6.492687
6.492687 -6.492687 6.492687
6.492687 6.492687 -6.492687
Ca Zn Te O
12 12 8 48
direct
0.7499996534564256 0.3435928412400715 0.1564069277308789 
0.6871846824806052 0.5935927257255469 0.3435928412400715 
0.3435928412400715 0.6871846824806052 0.5935927257255468 
0.5935927257255468 0.7499996534564256 0.9064065811873045 
0.15640692773087891 0.7499996534564256 0.34359284124007156 
0.7499996534564257 0.9064065811873045 0.5935927257255468 
0.34359284124007156 0.15640692773087891 0.7499996534564256 
0.5935927257255469 0.34359284124007156 0.6871846824806052 
0.9064065811873045 0.5935927257255468 0.7499996534564256 
0.15640692773087883 0.9064065811873044 0.8128146244322461 
0.8128146244322461 0.15640692773087891 0.9064065811873044 
0.9064065811873045 0.8128146244322461 0.1564069277308789 
0.2499998844854752 0.09539695592104352 0.4046028130499069 
0.19079391184208702 0.8453966093774692 0.0953969559210435 
0.8453966093774692 0.24999988448547522 0.6546026975353822 
0.6546026975353822 0.8453966093774693 0.24999988448547525 
0.09539695592104351 0.40460281304990686 0.2499998844854752 
0.40460281304990686 0.6546026975353821 0.30920585712886334 
0.6546026975353821 0.3092058571288634 0.4046028130499069 
0.09539695592104354 0.19079391184208705 0.8453966093774692 
0.8453966093774692 0.09539695592104355 0.19079391184208708 
0.3092058571288634 0.40460281304990686 0.6546026975353821 
0.4046028130499069 0.24999988448547522 0.09539695592104351 
0.24999988448547517 0.6546026975353822 0.8453966093774692 
0.49999976897095044 -1.470373171722182e-18 0.014710993202663331 
0.48528877576828716 0.49999976897095044 2.299087248319573e-19 
-7.576346917063675e-18 0.4852887757682872 0.49999976897095044 
0.014710993202663331 0.49999976897095044 1.470373171722182e-18 
0.014710993202663303 0.014710993202663303 0.014710993202663303 
0.49999976897095044 1.1090336462616826e-19 0.48528877576828716 
1.470373171722182e-18 0.014710993202663338 0.49999976897095044 
0.48528877576828716 0.48528877576828716 0.48528877576828716 
0.3161118539378902 0.31858685279429644 0.9389005661731887 
0.48956377379298877 0.5937007256756445 0.6652476926167736 
0.49752477011454416 0.37721082570660236 0.31611185393789015 
0.3772108257066024 0.5610987407396627 0.879685593533959 
0.0024749988564061617 0.3185868527942964 0.8796855935339589 
0.00247499885640619 0.18388791503306026 0.12278894326434807 
0.1814129161766541 0.18388791503306026 0.5610987407396626 
0.8347516142960778 0.9062985812372069 0.010435995177961673 
0.3185868527942963 0.9389005661731886 0.31611185393789015 
0.8347516142960778 0.4284528020298212 0.824315619118116 
0.42845280202982117 0.10413795188219367 0.5937007256756445 
0.824315619118116 0.8347516142960776 0.42845280202982117 
0.3185868527942964 0.879685593533959 0.002474998856406217 
0.6203137133788924 0.9389005661731887 0.12278894326434807 
0.5610987407396626 0.8796855935339589 0.3772108257066024 
0.5937007256756446 0.4284528020298213 0.10413795188219366 
0.6203137133788923 0.18141291617665403 0.4975247701145442 
0.879685593533959 0.002474998856406151 0.3185868527942964 
0.5937007256756445 0.6652476926167736 0.48956377379298877 
0.9389005661731887 0.12278894326434804 0.6203137133788924 
0.18388791503306026 0.12278894326434807 0.002474998856406201 
0.10413795188219364 0.5937007256756446 0.4284528020298213 
0.39586181708875684 0.07154696694112915 0.9062985812372067 
0.1838879150330603 0.5610987407396627 0.1814129161766541 
0.07154696694112919 0.6652476926167735 0.6756836877947352 
0.122788943264348 0.6203137133788924 0.9389005661731887 
0.879685593533959 0.37721082570660236 0.5610987407396627 
0.5610987407396627 0.181412916176654 0.1838879150330603 
0.18141291617665403 0.4975247701145442 0.6203137133788923 
0.6652476926167735 0.6756836877947353 0.07154696694112918 
0.9062985812372066 0.3958618170887567 0.07154696694112915 
0.10413795188219371 0.010435995177961678 0.6756836877947353 
0.6756836877947352 0.10413795188219367 0.0104359951779617 
0.07154696694112915 0.9062985812372069 0.39586181708875684 
0.31611185393789015 0.49752477011454427 0.37721082570660236 
0.010435995177961673 0.8347516142960778 0.9062985812372067 
0.12278894326434804 0.0024749988564062133 0.18388791503306026 
0.49752477011454427 0.6203137133788924 0.18141291617665406 
0.9062985812372067 0.010435995177961685 0.8347516142960777 
0.37721082570660236 0.31611185393789015 0.4975247701145442 
0.9389005661731886 0.3161118539378901 0.31858685279429644 
0.8243156191181161 0.4895637737929888 0.3958618170887568 
0.3958618170887568 0.824315619118116 0.48956377379298877 
0.48956377379298877 0.39586181708875673 0.824315619118116 
0.6652476926167735 0.48956377379298877 0.5937007256756446 
0.0104359951779617 0.6756836877947352 0.10413795188219364 
0.6756836877947352 0.07154696694112916 0.6652476926167736 
0.42845280202982117 0.824315619118116 0.8347516142960777 
