System
1.0
10.03212 0.0 0.012081
0.0 5.230663 0.0
-1.144219 0.0 10.423063
Ba Fe O Se
2 4 24 8
direct
0.25000003585784375 0.934000535687657 0.25000009589955713 
0.7500001075735313 0.06610003791108579 0.7500002876986713 
0.5000000054705902 0.0 4.796421734783727e-08 
0.0 0.5000002867706943 0.0 
0.5000000717156875 0.5000002867706943 0.5000001917991143 
6.624509730874309e-08 0.0 0.5000001438348969 
0.1210000058682965 0.18500010610515688 0.03430002147441452 
0.840000014278215 0.296000169768251 0.03840009162640522 
0.4270000145953996 0.6890003951700167 0.07490006250790915 
0.6760000214401987 0.937000537408281 0.10600009534061999 
0.44400002499639374 0.20600011814952604 0.15200008631803363 
0.046600025020545006 0.5910003389629606 0.18500005768917688 
0.453000046690766 0.5910003389629606 0.31500013407156596 
0.05600004671929383 0.20600011814952604 0.3480001054810805 
0.8240000612166691 0.937000537408281 0.3940001923869289 
0.07270005710375653 0.6890003951700167 0.42500012923365954 
0.6600000684316489 0.296000169768251 0.4620001962162116 
0.3790000658871381 0.18500010610515688 0.4660001704110006 
0.6210000775442369 0.8150004674362316 0.5340002131872278 
0.340000074999726 0.7040004037731374 0.5380001873820168 
0.927000086324336 0.31100017837137184 0.5750002543357903 
0.17600008221470564 0.06350003641987817 0.6060001912112994 
0.9440000967120811 0.7940004553918625 0.6520002781171479 
0.547000096740609 0.4090002345784279 0.6850002495266625 
0.9530001184064534 0.4090002345784279 0.81500032587068 
0.5560001184349813 0.7940004553918625 0.8480002972801947 
0.3240001219911764 0.06350003641987817 0.8940002882576084 
0.5730001288227262 0.31100017837137184 0.9250003210615523 
0.16000012920615608 0.7040004037731374 0.9620002920868911 
0.8790001376028255 0.8150004674362316 0.9660003622101149 
0.8440000224833757 0.9900005678059746 0.10000010973057825 
0.526000029603296 0.4940002833294459 0.1800001022389195 
0.974000053053572 0.4940002833294459 0.32000018548862935 
0.6560000601734921 0.9900005678059746 0.40000017799697063 
0.3440000832578827 0.010100005792768024 0.6000002056012578 
0.026300090381085373 0.5060002902119426 0.6800001981383776 
0.47400011382807905 0.5060002902119426 0.8200002813593089 
0.15600012094799928 0.010100005792768024 0.9000002738676501 
