System
1.0
7.609555 0.0 0.0
0.0 3.830287 0.0
0.0 0.0 3.830287
Ni O Pb
2 5 2
direct
0.24299984033242394 0.4999996083847437 0.4999996083847437 
0.7569995025993618 0.4999996083847437 0.4999996083847437 
0.1809998810706532 0.4999996083847437 0.0 
0.8189994618611324 0.4999996083847437 0.0 
0.1809998810706532 0.0 0.4999996083847437 
0.8189994618611324 0.0 0.4999996083847437 
0.49999967146589286 0.4999996083847437 0.4999996083847437 
0.0 0.0 0.0 
0.49999967146589286 0.0 0.0 
