System
1.0
-2.775355 4.807057 0.0
5.550711 0.0 0.0
2.775355 -1.602353 -5.289876
Li O Tb
8 6 1
direct
0.34599975068685096 0.654000284922762 0.038099971190272745 
0.10699960992934285 0.22599974918591048 0.3689997209766573 
0.4879993721540707 0.8930000936622065 0.3689997209766573 
0.7739991936665961 0.5120001934031411 0.3689997209766573 
0.22599930611616303 0.4879996147251116 0.6309995228625223 
0.5119991276286885 0.10699971446604618 0.6309995228625223 
0.8929988898534162 0.7740000589423421 0.6309995228625223 
0.6539987490082947 0.3459995231094134 0.9619992725732908 
0.09679971529825333 0.595999918406203 0.25599980642283 
0.40399952358023866 0.24500003603322565 0.25599980642283 
0.7549993045274288 0.9030003612257856 0.25599980642283 
0.2449991952553303 0.09679944686643568 0.7439994374163497 
0.5959989762025205 0.7549997720950271 0.7439994374163497 
0.9029987846093223 0.40399988960430083 0.7439994374163497 
0.0 0.0 0.0 
