System
1.0
-3.967838 0.0 0.0
0.0 0.0 5.6812
1.983919 10.613039 -2.8406
La O Sr Ta
1 11 2 3
direct
0.0 0.49999999999999994 0.0 
0.0 0.0 0.0 
0.5609997422260624 0.3239999942523537 0.12199998850470742 
0.5609997422260624 0.7969999942523537 0.12199998850470742 
0.12199998870962186 0.6219999884575955 0.24499997691519118 
0.6969997296165522 0.4559999813908173 0.39499996278163474 
0.6969997296165522 0.9389999813908172 0.39499996278163474 
0.30299997124530154 0.06079997149732781 0.6049999429946556 
0.30299997124530154 0.5439999714973278 0.6049999429946556 
0.8779997121522318 0.3779999644305496 0.7549999288610993 
0.43899995863579144 0.20299995863579148 0.877999917271583 
0.43899995863579144 0.6759999586357914 0.877999917271583 
0.20099998106103437 0.2009999810610344 0.4019999621220688 
0.7989997198008195 0.7989999718271108 0.5979999436542216 
0.4999997479737086 0.0 0.0 
0.6379997347659223 0.6379999870442399 0.27499997408847987 
0.3619999660959315 0.3619999658439052 0.7249999316878105 
