 O  V 
 1.0000000000000000
     4.1217103670869761   -0.0000000000000002    0.0000000000000000
    -2.0608551835434881    3.5695058849390078    0.0000000000000001
     0.0000000000000004    0.0000000000000007    8.7064111769422521
 O   V  
  12   1
Cartesian
 -0.0000206085518566  2.3796824883123007  0.0000000000000001
  2.0608757920953447  1.1898233966267071  0.0000000000000000
 -0.0000206085518564  2.3796824883123011  4.3532055884711260
  2.0608757920953447  1.1898233966267076  4.3532055884711260
  0.0000000000000001  0.0000000000000001  1.6896979858159580
  0.0000000000000003  0.0000000000000006  7.0167131911262937
  2.0608551835434881  0.0000000000000001  2.9578436243396218
  1.0304275917717443  1.7847529424695041  2.9578436243396218
 -1.0304275917717438  1.7847529424695041  2.9578436243396218
  2.0608551835434885  0.0000000000000004  5.7485675526026352
  1.0304275917717443  1.7847529424695043  5.7485675526026352
 -1.0304275917717438  1.7847529424695043  5.7485675526026352
  0.0000000000000000  0.0000000000000000  0.0000000000000000
