 V  O 
 1.0000000000000000
     4.1637840097135852   -0.0000010207167070    0.0000000000000000
    -2.0818773352373574    5.1469246662295118    0.0000000000000000
     0.0000000000000005    0.0000000000000006    7.4685440910233565
 V   O  
   2  10
Cartesian
  2.0818920048567930 -0.0000005103583532  3.7342720455116782
  2.0818920048567926 -0.0000005103583535  0.0000000000000000
 -0.0000063992754552  5.0610782851329983  1.8671360227558391
  2.0819130737516853  0.0858453603798056  5.6014080682675171
  0.0000013612374505  0.4815023101524875  4.1921535544888267
  2.0819053132387775  4.6654213353603167  3.2763905365345334
  0.0000305471370457  3.4082655097954442  7.2388136389441309
  2.0818761273391813  1.7386581357173607  0.2297304520792234
  2.0818761273391817  1.7386581357173616  3.5045415934324557
  0.0000305471370455  3.4082655097954442  3.9640024975909034
  0.0000013612374507  0.4815023101524877  7.0106625820462076
  2.0819053132387775  4.6654213353603167  0.4578815089771460
