 V  O 
 1.0000000000000000
     2.5900110912583258   -0.0000000000000001   -0.0000000000000001
     0.0000000000000001    2.5900110912583258   -0.0000000000000001
     0.0000000000000001    0.0000000000000001    2.5900110912583258
 V   O  
   1   1
Cartesian
  0.0000000000000000  0.0000000000000000  0.0000000000000000
  1.2950055456291629  1.2950055456291629  1.2950055456291629
