 V  O 
 1.0000000000000000
     6.5394582216728132    0.0000000000000001    0.0000000000000000
    -3.2697291108364048    5.6633369469556625   -0.0000000000000000
    -0.0000000000000000    0.0000000000000000    2.5972593526767889
 V   O  
   2   6
Cartesian
 -0.0000326972911409  3.7755768424269509  1.9479445145075918
  3.2697618081275492  1.8877601045287116  0.6493148381691972
 -0.0000326972911182  2.4250511478950223  0.6493148381691972
  1.1695895599282644  4.4507830563234076  0.6493148381691972
 -1.1695241653460235  4.4507830563234076  0.6493148381691972
  3.2696964135452875  3.2382857990606420  1.9479445145075918
  2.1001395509081444  1.2125538906322548  1.9479445145075918
  4.4392532761824315  1.2125538906322548  1.9479445145075918
