 O  V 
 1.0000000000000000
     4.9765045516267445    0.0001016196423898   -0.0006636868686243
    -0.0001382080446273    5.0595595044753052   -0.0000464208430902
     0.0010025193088529    0.0019682780602717    7.3547590016315967
 O   V  
   4  12
Cartesian
  2.4878465643749252  0.0002595642841970 -0.0006594618510226
 -0.0011976793192940  2.5301898410250923  0.0003141911950960
  0.0004519308837632  2.5299136260757487  3.6774202550467856
  2.4889985508880699 -0.0004305802796260  3.6772214189784220
  4.3113036404059324  2.9498739580622586  5.5150426478664993
  1.8232436644371515  4.6410042903009003  1.8383011292845735
  3.1547270752596810  0.4200005962138615  5.5152107621708328
  0.6652222665012565  2.1111421852076173  1.8384744836494025
  3.2262179445449934  1.7323860204409152  3.1041346576269859
  0.7378884106651254  0.7981766087568514  4.2499715472055168
  4.2394787232606053  4.2623429110417685  0.5720842836656292
  1.7514159024900271  3.3316411772171710  6.7823141862046050
  3.2261473013307578  1.7336337444280812  0.5723661617486110
  0.7390988548157151  0.8009967848371617  6.7827161662169875
  1.7514325238323412  3.3281911616606998  4.2495124964375863
  4.2393561309113750  4.2620839269892636  3.1039173253557979
