 O  V 
 1.0000000000000000
     5.6207670483963801   -0.0584008784748357   -0.1177444038054873
     1.3039793813708385    5.4677299355312821   -0.1177444038054872
     2.6085083423866622    2.0376601677991903    4.1417302094434794
 O   V  
   4   8
Cartesian
  3.1479773658934387  2.4590713333680601  3.5946394278414306
  1.8438446695316935  1.4403361406450390  1.5236511320601740
  4.6540300614028451  3.6355381816351775  0.3705357714235759
  5.9582842325961760  4.6543682655347727  2.4414008761453156
  3.4548765852540813  2.6988084676751241  1.5868318522906808
  4.3472307054059609  5.3727624309567616  1.4058160095516063
  4.7590026054682042  3.7175384452643216  3.6574934818027440
  6.2653170477647953  2.9173263849820854  1.4058160095516063
  5.6512514174275541  6.3914101460874608  3.4769857427390249
  7.5693377597863893  3.9359741001127833  3.4769857427390249
  7.1575658597241469  5.5911980858052237  1.2253082704878855
  8.4616918799382681  6.6099280633944204  3.2959698999999505
