 V  O 
 1.0000000000000000
     5.7406207270004970    0.0138028760652084    0.0103682181906610
     2.8588427653268167    4.9807202159112709   -0.0032532156179377
     2.8578618243315925    1.6744836785435018    4.6966606503572255
 V   O  
   4   8
Cartesian
  5.7287360956199276  3.3348975700212335  2.3522586094497817
  2.8581398043977946  3.3280912882945115  2.3470439702425030
  4.2998430923797368  2.4969581187393999  0.0030885134941495
  4.2992170946312189  0.8435341043681965  2.3534658830950415
  5.8662355830155493  4.9123189194974497  3.4647868365663577
  8.4501705300989443  4.9181241188334770  3.4700059790831403
  7.1636783687865275  2.6768069650729904  3.4716038094837733
  7.1634345869499825  4.1651048092906686  1.3517659946921485
  3.0068989463276128  1.7508596099106579  1.2337448599513627
  5.5915016965654800  1.7564791978217522  1.2389092975659890
  4.2938279119308076  2.5038032512285682  3.3522589287671991
  4.2935764739794031  3.9926753679646043  1.2318801029011126
