 O  V 
 1.0000000000000000
     2.9602393218665002   -0.0000000000000001   -0.0000000000000001
     1.4801196609332503    2.5636424540180087   -0.0000000000000001
     1.4801196609332503    0.8545474846726695    2.4170252850318077
 O   V  
   1   1
Cartesian
  0.0000000000000000  0.0000000000000000  0.0000000000000000
  2.9602393218665006  1.7090949693453390  1.2085126425159038
