 O  V 
 1.0000000000000000
     4.9560094961508190   -0.6564351358741609    1.3227681481862454
    -0.9350870678118398    4.9100169861849370   -1.3499684312087357
    -0.5450559662285847   -3.4849392323603552    5.5588155062333531
 O   V  
   2   8
Cartesian
 -0.4737341129218492  2.4565559475981229 -0.6839746563443736
  2.4717539737364218 -0.3278443014868951  0.6547592439664486
  3.8223371169630078  0.4189880872984295  2.0584279869121254
  2.5855088235828290 -2.4283305613927766  4.7933977021561232
 -0.3616047525033719  0.3574284749923771  3.4573287434395734
  0.2391932434194184 -2.2225748308366322  4.0355237426721979
  0.8787673300425802  3.1987591714695336  0.7216062442058270
  1.2138578265011342  0.8670810553845021  1.4933811397106869
  3.2273415300844239  2.9972147703816927  1.4786662890605597
  2.2481431300165049 -0.0983115735524644  4.0237236338389843
