 O  V 
 1.0000000000000000
     5.8319073101772156   -0.6476809474769690   -0.4865176798446970
     2.9826122813687035    4.4818576405660222    0.0000000627891935
     2.9826122813687044    1.2484858117190609    4.3044547957013375
 O   V  
   4   8
Cartesian
  4.2765842874876432  0.3873649817123800  0.2909764643995369
  5.7625468875502781  1.0139043785879904  2.4462403873804131
  5.7625468875502772  2.6318498545972577  0.2923362184666212
  7.2550149066408238  3.2565791085020614  2.4462404186367923
  4.2037054627292472  2.0508405991086587  1.5405273443606011
  5.6966193002298109  2.6757564677101784  3.6950749427971594
  5.6966193002298100  4.2941852442220059  1.5405273758314932
  7.3232304739333065  1.5932367341640163  1.1967896266956082
  7.1868421763281187  4.9173415183595228  3.6937868882282556
  8.8156084385935571  2.2184477133480449  3.3479935582812250
  8.8156084385935571  3.8334522701807350  1.1980045139305262
 10.3053636170287195  4.4570459617490696  3.3479935896191249
