 V  O 
 1.0000000000000000
     5.7086051737088601    0.4530563599662639    0.1394489702006269
     0.3890461722800083    5.1372870458597948   -0.3695502182433802
    -2.8624935160105101   -3.1858700002558429    5.5440045190593548
 V   O  
   2   8
Cartesian
  0.5052784288292096  3.0937445103142078  0.2337662740377832
  0.4548694826395030  1.8297546236492979  4.7993351102203388
  3.9868498851941157  0.5601731369256242  0.9233503629444290
  1.5904463121891519  0.0498766405947295  5.0099176151544293
 -1.9726568344569586 -1.3867702919114437  4.3753069859687983
 -0.6872702578930843 -1.8602583389359417  4.5103282200138013
  1.9127775172346979  4.1649669904496776 -0.2170084623659706
  0.8826487197100600  2.2280068496547800  1.5420093028381479
 -0.8853662246930969 -0.7327472895659518  1.5074908618352236
  1.5760929819709872  0.8224389608125371  3.7917407060612516
