 V  O 
 1.0000000000000000
     3.5906859889501277    0.0000000000000000    0.0000000000000000
     0.0000000000000000    3.5906859889501277    0.0000000000000000
     0.0000000000000000    0.0000000000000000    3.5906859889501277
 V   O  
   3   1
Cartesian
  0.0000000000000000  1.7953429944750638  1.7953429944750638
  1.7953429944750638  1.7953429944750638  0.0000000000000000
  1.7953429944750638  0.0000000000000000  1.7953429944750638
  0.0000000000000000  0.0000000000000000  0.0000000000000000
