 V  O 
 1.0000000000000000
     5.7513386326229590    0.1159585598864198   -0.1608722909265474
     2.7741273717650690    5.0336212354499716   -0.0036243708271798
     2.9800946392147543    1.6377199523354236    4.6379280535785261
 V   O  
   4   8
Cartesian
  4.2627330021940137  2.5747898976681958 -0.0822483308768636
  4.3657166359188562  0.8768392561109217  2.2385278813259895
  5.7527803218013904  3.3936498738359075  2.2367156959123995
  2.8771110054899118  3.3356705938926976  2.3171518413756731
  3.0204166000872426  1.7820180951747950  1.1717511180299229
  5.8976396899527526  4.9551765499786686  3.3707788064852253
  7.1424362694692487  4.2674872698430413  1.2115234241810762
  5.6079486949237562  1.8321735339055165  1.1026525490958656
  7.2391894918624065  2.7398541822040956  3.2999927325714538
  4.2664286651267211  4.0474467250533186  1.1734370505304346
  4.3631243741335348  2.5198124778287743  3.2619079676437228
  8.4851440435155414  5.0052816524970201  3.3016802737948776
