 V  O 
 1.0000000000000000
     4.0197599915843796   -0.9992528346118507   -0.6944343195429641
     1.3076602581990537    3.9302673272324116   -0.6944343217307024
     1.3076602569148326    0.7194422431166246    3.9257665688227239
 V   O  
   1   6
Cartesian
  0.0000000000000000  0.0000000000000000  0.0000000000000000
  2.7464415413971013  1.4862876213154839  2.9532942564570934
  2.7255473537428476  3.2994204084347789  0.3989430908277747
  2.3892117146981504  3.0896404821508110  2.1735491561976374
  3.9095331529554169  0.3510363273024060  2.1379548367212822
  3.8886389653011642  2.1641691144217017 -0.4163963289080365
  4.2458687920001159  0.5608162535863741  0.3633487713514196
