 O  V 
 1.0000000000000000
     2.7022114912667226    0.0000025309803604    0.0000000000000001
    -1.3511150583667435    2.3403691944713838    0.0000000000000000
     0.0000000000000005    0.0000000000000009   10.1469056971360381
 O   V  
   2   4
Cartesian
  1.3510891308276347  0.7799973833526370  2.5367264242840095
  0.0000073020723453  1.5603743420991087  7.6101792728520286
  1.3510964338773226  2.3401240883576961  3.9032894102840743
 -0.0000000009773425  0.0002476370940489  6.2436162868520366
 -0.0000000009773424  0.0002476370940491  8.9767422588520933
  1.3510964338773224  2.3401240883576957  1.1701634382840169
