 V  O 
 1.0000000000000000
     5.1948562074885425   -0.0080349797215678   -0.0048853675618624
     4.4245415137334883    2.7221366553922937   -0.0048853675618624
     4.4245415137334883    1.2483791485204534    2.4190083379322824
 V   O  
   1   2
Cartesian
  7.0219696174777599  1.9812404120955898  1.2046188014042789
 10.7137128242588133  3.0228466485202881  1.8379283424356903
  3.3301898684284961  0.9395943901630427  0.5712850702894808
