 V  O 
 1.0000000000000000
     4.8267686694415639   -0.0000001793571410    0.0226873699724367
    -0.0000002194923671    5.8826045548115928   -0.0000002751250735
    -1.9387750289618590   -2.9413419545433563    5.0541875196029507
 V   O  
   3   8
Cartesian
  2.4133843347207820 -0.0000000896785705  0.0113436849862183
 -0.0000001600434190  4.2791767275248249 -0.0000002001996109
 -0.0000000594489481  1.6034278272867701 -0.0000000749254626
 -1.2845569745483352 -0.0000021735910711  4.0236102549095634
  4.1725503955356729  2.9412645945021683  1.0532643595407500
 -1.1046082377682522  2.9412705688571177  4.0391933467183661
  3.9926016587555901 -0.0000081479460229  1.0376812677319487
  1.5136874541570853  1.3155634621820198  0.9765837501638704
  1.5136873328498086  4.5670257582566975  0.9765835979343817
  1.3743060881375282 -1.6257633373456013  4.1002910165159321
  1.3743059668302529  1.6256989587290767  4.1002908642864435
