 V  O 
 1.0000000000000000
     5.5141215083839556   -0.0002755709397832    0.0000000000000000
     0.0006296032485039   11.0514639190890378    0.0000000000000000
     0.0000000000000000    0.0000000000000000    3.2918588321801465
 V   O  
   4  10
Cartesian
  3.7846234127987182  4.0649362438869199  0.0000000000000000
  1.7295648820990228  6.9863126202496870  0.0000000000000000
  1.0268682008502676  1.4604557823252813  0.0000000000000000
  4.4865321227250377  9.5905311620356244  0.0000000000000000
  4.4654606745278276  4.3808436364913410  1.6459294160900733
  1.0509834584709510  6.6701629227893031  1.6459294160900733
  1.7075367225509124  1.1448191458453423  1.6459294160900733
  3.8088715730616793  9.9064211095366410  1.6459294160900733
 -0.1019396906057782  2.6591435309578069  0.0000000000000000
  0.1015265547603147  8.3927183492505044  0.0000000000000000
  2.6548494179209396  2.8664412916280582  0.0000000000000000
  2.8592753906185493  8.1847356712188066  0.0000000000000000
  2.7579164930977038  5.5259000766015678  0.0000000000000000
 -0.0003085019451173 -0.0005322235460352  0.0000000000000000
