 V  O 
 1.0000000000000000
     5.7410827743728916    0.0002783290534368   -0.0003932948590248
     2.8628503759512030    4.9705092679364498   -0.0001750068786541
     2.8782375612923170    1.6548499301217148    4.6866425249455315
 V   O  
   4   8
Cartesian
  5.7410853558082060  3.3128187635558008  2.3430371116039264
  2.8705439686217602  3.3126795990290825  2.3432337590334389
  4.3019665751620471  2.4853937984949432 -0.0002841508688394
  4.3096601678326039  0.8275641295875757  2.3431246150432532
  5.8809814158347065  4.8871165805585006  3.4607643022837844
  8.4716757286518352  4.8910301324067200  3.4552324001022097
  7.1765197733226378  2.6448306828812802  3.4570541386965963
  7.1761350395247794  4.1410501655572585  1.3420878561948280
  3.0104375721368548  1.7346073919215910  1.2308418270385921
  5.6011892957817055  1.7385209465531006  1.2253099209240679
  4.3060356720916335  2.4845873615543432  3.3439863670130245
  4.3056509382937742  3.9808068442303219  1.2290200845112569
