 O  V 
 1.0000000000000000
     5.2450596644686067    0.0831038481871123    0.0505281728477142
     4.5149783124093528    2.6706793090695546    0.0505281728477142
     4.5149783124093528    1.2738957841708278    2.3478225229380847
 O   V  
   1   2
Cartesian
  7.1375081446436566  2.0138394707137475  1.2244394343167566
 10.5831538683110544  2.9860103634484672  1.8155314231620374
  3.6918245720066407  1.0416299632665644  0.6333239672462387
