 O  V 
 1.0000000000000000
     4.9924497872608828    0.0000000000000000    0.0000000000000000
     0.0000000000000000    4.9924497872608828    0.0000000000000000
     0.0000000000000000    0.0000000000000000    2.6190033935372523
 O   V  
   2   4
Cartesian
  0.0000000000000000  0.0000000000000000  0.0000000000000000
  2.4962248936304414  2.4962248936304414  1.3095016967686262
  1.3872273900233933  1.3872273900233933  0.0000000000000000
  3.6052223972374904  3.6052223972374904  0.0000000000000000
  3.8834522836538339  1.1089975036070487  1.3095016967686262
  1.1089975036070487  3.8834522836538339  1.3095016967686262
