 V  O 
 1.0000000000000000
     5.9424153164351559   -0.0675507245727324    0.3563605933385022
    -0.0943311734298435    5.9511894780435597   -0.0351543498045951
    -2.7258953551385985   -2.9939260660597409    3.9723433825925776
 V   O  
   2   8
Cartesian
 -0.4766687461176219  3.7565949811892838 -0.1826507467202264
  3.4846568733816561  0.2131528591323669  0.7430069991054734
 -0.5057400795486140  2.2211709491260709  0.8589606094788387
  4.9965118000430788  1.1124017724632727  0.3745092351130377
 -2.4699211420768967  0.3679951807234230  2.2374873517357581
 -0.3660844844539983 -2.1718231666850034  3.4154187319483560
  0.5206224368385176  4.7185258119543203  0.6374627053268799
  2.1420966802145656  1.4202899988007034  0.7102138275358367
  3.5960574226377586  4.2168103270628823  0.7656822601552057
  1.2184659116785421  1.7018670215646639  3.3909853036141815
