 O  V 
 1.0000000000000000
     3.5783589117212893    0.0000000000000000    0.0000000000000000
     1.7891794558606451    3.0989497214090740    0.0000000000000000
     1.7891794558606451    1.0329832404696915    2.9217178167526909
 O   V  
   1   2
Cartesian
  0.0000000000000000  0.0000000000000000  0.0000000000000000
  5.3675383675819353  3.0989497214090740  2.1912883625645181
  1.7891794558606449  1.0329832404696915  0.7304294541881727
