 V  O 
 1.0000000000000000
     5.7269152783460919    0.0093664101318722   -0.0140119286698215
     2.8419739758050970    4.9923289994471105   -0.1961621445420672
     2.8857522471836083    1.8772544418169053    4.6197404748829376
 V   O  
   4   8
Cartesian
  4.2844446270755947  2.5008477047894915 -0.1050870366059444
  4.3063337627648499  0.9433104259743887  2.3028642731065578
  5.7273207506673991  3.4394749256979442  2.2047832008355246
  2.8638631114943527  3.4347917206320080  2.2117891651704351
  3.0013029352707532  1.8108007290088541  1.1681974727530742
  5.8651738383490386  5.0571856440117733  3.2582405108350834
  7.1547365894393975  4.2389853645328053  1.1720792166349516
  5.5894676629857587  1.8217642073841132  1.1513258908359654
  7.1632100726459180  2.8299128850709900  3.3503066487807507
  4.2914314286888775  4.0490369663248975  1.0592597528902969
  4.2999049118953998  2.6399644868630823  3.2374871850360973
  8.4533385660640441  5.0681491223870347  3.2413689289179755
