 O  V 
 1.0000000000000000
     3.1162721087083600   -0.0000000000000001    0.0000000000000000
     0.0000000000000001    2.5994002369847693    0.0000044842342860
     0.0000000000000002   -1.2997280798193538    5.1526413314261070
 O   V  
   2   2
Cartesian
  0.7790680271770900  0.0000060840653185  1.4001098988536413
  2.3372040815312700  1.2996660731000975  3.7525359168067514
  0.7790680271770901 -0.0000057062299005  3.4526832065180568
  2.3372040815312700  1.2996778633953148  1.6999626091423361
