 V  O 
 1.0000000000000000
     5.2614384921988995    0.0497930434656348    0.0303628681474192
     4.4709298566303550    2.7741666445008444    0.0303628681474192
     4.4709298566303550    1.2972922140137320    2.4523367196783070
 V   O  
   1   2
Cartesian
  7.1016491027298052  2.0606259509901057  1.2565312279865728
 10.8536096383191438  3.1493008678843037  1.9203848640848473
  3.3496885671404688  0.9719510340959082  0.5926775918882985
