 O  V 
 1.0000000000000000
     5.5080075465252767    0.1835209018742635   -0.2863682334129196
     2.9505106243928596    5.0646406895169962    0.0063909182669523
     2.5720942743295296    1.8809133623085503    4.5011588172466812
 O   V  
   4   8
Cartesian
  4.0399228964221887  1.0317453428625061  2.1077305697358799
  4.2294252579384368  2.6241768038678961 -0.1401312896139181
  2.7609591922422503  3.4727561243800715  2.2538314311758292
  5.5159453041877411  3.5646740631913465  2.1106465511255652
  2.5747398186607149  1.8591542945817299  0.9150566285171028
  5.6966380961706209  1.7652154965146289  1.0313495784085485
  4.0746418487163254  4.4379197894060605  0.9186628203098147
  4.2023989728791591  2.6307743317237469  3.4685795787520046
  6.8283495726253314  4.4981483061061196  0.7517553210124958
  6.9559414689459906  2.6907981484053618  3.3025813433840794
  5.3333474034341064  5.3643131427653854  3.1901980516388342
  8.4559740314575791  5.2701839199281446  3.3062404768808440
