 V  O 
 1.0000000000000000
     3.5886363208875762   -0.0000000000000001   -0.0000000000000001
     0.0000000000000001    3.5886363208875762   -0.0000000000000001
     0.0000000000000001    0.0000000000000001    3.5886363208875762
 V   O  
   3   1
Cartesian
  0.0000000000000001  1.7943181604437881  1.7943181604437881
  1.7943181604437881  1.7943181604437881 -0.0000000000000001
  1.7943181604437881  0.0000000000000000  1.7943181604437881
  0.0000000000000000  0.0000000000000000  0.0000000000000000
