 O  V 
 1.0000000000000000
     7.7874102163017165   -0.0000000000000001    0.0000000000000003
     0.0000000000000002    5.3429599202575631    0.0000000000000001
     0.0000000000000003    0.0000000000000003    2.9064432434144836
 O   V  
   8   4
Cartesian
  1.0384964931490739  0.5832118286544858  0.7266108108536209
  6.7489137231526390 -0.5832118286544862  2.1798324325608633
  2.8552086150017839  3.2546917887832718  2.1798324325608629
  4.9322016012999352  2.0882681314742961  0.7266108108536211
  0.7955814919964860  3.4376577491775437  0.7266108108536210
 -0.7955814919964845  1.9053021710800200  2.1798324325608629
  3.0981236161543722  0.7661777890487612  2.1798324325608629
  4.6892866001473417 -0.7661777890487614  0.7266108108536210
 -0.8428797497923725  0.8736838687509547  0.7266108108536209
  0.8428797497923720 -0.8736838687509544  2.1798324325608629
  4.7365848579432326  3.5451638288797365  2.1798324325608633
  3.0508253583584857  1.7977960913778270  0.7266108108536210
