 O  V 
 1.0000000000000000
     4.2337082640990458    0.0000000000000000    0.0000000000000000
     2.1168541320495233    3.6664989089218909    0.0000000000000000
     2.1168541320495233    1.2221663029739638    3.4568083222823289
 O   V  
   4   2
Cartesian
  3.1752811980742845  0.6110831514869819  1.7284041611411645
  2.1168541320495233  2.4443326059479276  1.7284041611411645
  4.2337082640990467  2.4443326059479276  1.7284041611411645
  3.1752811980742845  1.8332494544609454  0.0000000000000000
  1.0584270660247617  0.6110831514869819  0.4321010402852911
  7.4089894621733308  4.2775820604088732  3.0247072819970380
