 V  O 
 1.0000000000000000
     5.4693051557849257   -0.4945023172069936   -0.3082866367589428
    -0.4581412706351808    5.4699798431118785   -0.3966776986336338
    -2.9150885327704295   -2.9152024169721953    5.1586077694451689
 V   O  
   2   8
Cartesian
  0.0340951855300103  3.0037155990626334 -0.3643803348383515
  2.4337681690005613 -0.5319302059013088 -0.0855405295472657
  3.7334498374225782  0.7320659536712981  0.2470908440472847
  1.3005535149411274 -1.7246705179772228  4.1896824265473462
 -2.0278834270767185  0.9306193394503457  3.5339651885920440
 -1.6794687815538962 -2.0922265480718480  4.4893128169693863
  1.2071364025808746  4.2048598541222955  0.8315967472856088
  1.2003159676551909  1.7875951836537942  0.3716380880071988
  4.2538639915103280  3.6523985162366510  0.0441065228548161
  0.3899419439566945  0.7702760146682177  4.1476372738474421
