 V  O 
 1.0000000000000000
     3.0935053291562089    0.0000000000000001    0.0000000000000001
    -1.5467526645781036    2.6790542017918182    0.0000000000000002
     0.0000000000000002    0.0000000000000003    4.0555790403216916
 V   O  
   2   1
Cartesian
 -0.0000154675266610  1.7860450647085606  0.9209912268721059
  1.5467681321047446  0.8930091370832579  3.1345878134495844
  0.0000000000000000  0.0000000000000000  0.0000000000000000
