 V  O 
 1.0000000000000000
     5.8478544435017756   -0.0000002344603153    0.0000000000000000
    -0.0000104408917366    5.8478544434924604    0.0000000000000000
    -0.0000000000000000   -0.0000000000000000    5.6187388700530301
 V   O  
  13   3
Cartesian
 -0.0000052204458683  2.9239272217462302  2.8093694350265150
  1.3922165765695389  4.4556298559236014  4.2109108288903423
  4.4556274260404987  1.3922243531085419  1.4078280411626887
  4.4556274260404987  1.3922243531085419  4.2109108288903423
  4.4556219574392140  4.4556297339733382  4.2109108288903423
  2.9239220013050193  2.9239271045160726  2.8093694350265150
  1.3922165765695389  4.4556298559236014  1.4078280411626887
  1.3922220451708258  1.3922244750588071  4.2109108288903423
  1.3922220451708258  1.3922244750588071  1.4078280411626887
  2.9239272217508878 -0.0000001172301577  2.8093694350265150
 -0.0000052204458683  2.9239272217462302  0.0000000000000000
  4.4556219574392140  4.4556297339733382  1.4078280411626887
  2.9239272217508878 -0.0000001172301577  0.0000000000000000
  2.9239220013050193  2.9239271045160726  0.0000000000000000
  0.0000000000000000  0.0000000000000000  2.8093694350265150
  0.0000000000000000  0.0000000000000000  0.0000000000000000
