 V  O 
 1.0000000000000000
     4.5651755014437185   -0.0000004095895951   -0.0000004095900999
     2.2825916960289887    5.4835917039655060    0.0000005647617853
     2.2825916960289923   -0.0000061510725564    5.4835917039620821
 V   O  
   5  12
Cartesian
  0.0000000000000000  0.0000000000000000  0.0000000000000000
  6.8477687536107394  4.3010279522348682  3.3455636544171399
  4.5651801345211016  2.1380231696525449  4.3010320840096945
  4.5651787589805988  3.3455619736508106  1.1825597751240733
  2.2825901398909596  1.1825571910684851  2.1380282047166266
  7.9723639062110472  3.8734989398833166  5.1056100827846578
  3.4071833790600499  1.6100860040691916  0.3779815769980195
  5.6897727554169162  0.3779769517416183  3.8735047315882860
  4.5651804271688592  3.7141444635592200  3.1206841501757840
  6.8477676284697839  2.3629032031344543  3.7141479829800295
  2.2825912650319164  3.1206819401689003  1.7694438761537370
  4.5651784663328385  1.7694406797441351  2.3629077089579829
  5.6897745298541835  5.1056079922108895  1.6100869281943893
  3.4405861380847851  5.1056081915617364  1.6100871275454818
  5.7231755144416496  3.8734991392341627  5.1056102821357472
  1.1579949872906503  1.6100862034200381  0.3779817763491116
  3.4405843636475160  0.3779771510924647  3.8735049309393781
