 V  O 
 1.0000000000000000
     2.9573570892484202   -0.0002196830171319   -0.0000613533511917
     0.0015554337068584    2.9562555811322722   -0.0000686561691991
    -0.0039519730625720   -0.0042081121122487    4.1968949722789244
 V   O  
   2   2
Cartesian
  1.1153823658180360  0.3728006005023116  4.1929901333727768
  2.5963217115417527  1.8551162481474872  2.0909794763801965
  1.1172782384253728  0.3768890295614633  2.0947176152123959
  2.5946736931282230  1.8510706154728762  4.1894961516472113
