 O  V 
 1.0000000000000000
     2.5880452369445530    0.0000000000000000    0.0000000000000000
     0.0000000000000002    2.5880452369449665   -0.0000001185619716
     0.0000000000000002   -0.0000091525799221    2.5880556358830460
 O   V  
   1   1
Cartesian
  0.0000000000000000  0.0000000000000000  0.0000000000000000
  1.2940226184722765  1.2940180421825223  1.2940277586605371
