 O  V 
 1.0000000000000000
     3.5430693197700647   -0.0000000000000001   -0.0000000000000001
     1.7715346598850328    3.0683880382901263   -0.0000000000000001
     1.7715346598850328    1.0227960127633757    2.8929039855821821
 O   V  
   3   1
Cartesian
  1.7715346598850326  1.0227960127633755  0.7232259963955455
  5.3146039796550975  3.0683880382901263  2.1696779891866367
  3.5430693197700651  2.0455920255267510  1.4464519927910910
  0.0000000000000000  0.0000000000000000  0.0000000000000000
