 V  O 
 1.0000000000000000
     2.5921051874282166    0.0000000258043209    0.0000000257588570
    -0.0000044982726868    2.5921051874243135    0.0000000257588570
    -0.0000044988186052   -0.0000044988264571    2.5924196202785579
 V   O  
   1   1
Cartesian
  0.0000000000000000  0.0000000000000000  0.0000000000000000
  1.2960480951684623  1.2960503572010886  1.2962098358981360
