 O  V 
 1.0000000000000000
     4.9780317760399235    0.0994755329854738   -0.0385000934470936
    -0.0876047491288775    5.0537515909994859    0.0580489801647348
     0.0544162756144215    0.0221841237423205    7.3449013274894890
 O   V  
   4  12
Cartesian
  2.3958265141460320  5.0739993636541065  0.0404451907457349
 -0.0372222053893193  2.4966371808652150  0.0288630401077725
 -0.0231984288400381  2.5655781807350695  3.7021318873277540
  2.5228856780563631  0.0907578477238200  3.6537688196621989
  3.2054547212816544  1.8488368187066457  3.0837389787392548
  0.7536311309441227  0.8380102973576978  4.2556113682580836
  4.1567773786217064  4.2973950752378665  0.5805456350822853
  1.7429386007758318  3.3612248106424487  6.8054373796124752
  1.7258616845689634  3.3892778456960406  4.2722725121998328
  4.2033782735649767  4.4004785975798466  3.0994293354091553
  0.7760293596480777  0.8136741986164369  6.7765759026037626
  3.2164868137753566  1.7500160444181412  0.5539180712742232
  0.6407010580532745  2.1078010092407937  1.8692436028734631
  3.1937844845082024  0.4961952339289139  5.4880959629439969
  4.3058728185091137  3.0710603695039187  5.5075856478772902
  1.7470908182098117  4.6806366918263276  1.8914631153944128
