 O  V 
 1.0000000000000000
     5.6109341953993761   -0.1971798885114762   -0.2295344429099934
     1.4351248241074432    5.4278798064037845   -0.2295344429099932
     2.7486869051921143    2.0405103518855294    4.0570037351195039
 O   V  
   4   8
Cartesian
  3.2920983831983968  2.4439163360704517  3.4859371361590181
  1.9052750031684507  1.4143965832595369  1.4705503112853642
  4.7473727503407765  3.5242512426683836  0.2202074132524464
  6.1217162029368337  4.5445064186111486  2.2487092808121982
  3.5471810349956434  2.6332790425305794  1.4696116224301021
  4.4989728794024799  5.2754796188226853  1.2440995373669461
  4.9308898722947943  3.6604866889056957  3.5119365951586938
  6.3517674836596454  2.7796568154606121  1.2440995373669459
  5.8916649222140212  6.3093560217616824  3.2533190242574506
  7.7444595264711840  3.8135332183996100  3.2533190242574506
  7.3125425335788314  5.4285261483166014  0.9854819664657035
  8.6962513708780627  6.4557337946917146  3.0278069391942912
