 O  V 
 1.0000000000000000
     5.5119482386359175    0.1936524405839546   -0.2701335744312093
     2.9498440561511381    5.0771477741037572    0.0250389814437741
     2.5602351184973942    1.8871655827750748    4.5157040515578961
 O   V  
   4   8
Cartesian
  4.0360490120009400  1.0400504812607962  2.1225979321975754
  4.2308707402373837  2.6356768029729305 -0.1224691548801165
  2.7548770596507683  3.4821545531019940  2.2703322189430075
  5.5110219906290894  3.5790264758983401  2.1352792876841944
  2.5735257821241362  1.8619533240554254  0.9245256575408759
  5.6934573651370188  1.7757247756062027  1.0485387857800317
  4.0737932724330763  4.4534742030771879  0.9439673312208345
  4.1922748462508697  2.6458594738840131  3.4888203944600096
  6.8298232753342996  4.5120030793177959  0.7816997564864516
  6.9482413909220107  2.7044519235804132  3.3267573215619950
  5.3285400923811226  5.3826173259860806  3.2225310978654909
  8.4487861849285100  5.2958233403529285  3.3457659906057007
