 O  V 
 1.0000000000000000
     2.5897311314287630   -0.0000000000000001   -0.0000000000000001
     0.0000000000000001    2.5897311314287630   -0.0000000000000001
     0.0000000000000001    0.0000000000000001    2.5897311314287630
 O   V  
   1   1
Cartesian
  0.0000000000000000  0.0000000000000000  0.0000000000000000
  1.2948655657143815  1.2948655657143815  1.2948655657143815
