 V  O 
 1.0000000000000000
     2.4775441424570932    0.0000000000000000    0.0000000000000000
     0.0000000000000001    3.7408316698624051    0.0000000000000000
     0.0000000000000001    0.0000000000000002    3.7408316698624051
 V   O  
   2   2
Cartesian
  1.2387720712285466  1.8704158349312026  0.0000000000000000
  1.2387720712285466  0.0000000000000001  1.8704158349312026
  0.0000000000000001  1.8704158349312026  1.8704158349312026
  0.0000000000000000  0.0000000000000000  0.0000000000000000
