 O  V 
 1.0000000000000000
     4.8114429561353873    0.0000000000000000   -1.0025112141963473
     0.0000000000000000    3.1910038321764693    0.0000000000000000
    -0.8201466432500829    0.0000000000000000    2.4768400232078962
 O   V  
   2   2
Cartesian
  0.6034995492503715  0.7977509580441173  0.9080526698694877
  3.3877967636349338  2.3932528741323518  0.5662761391420617
  1.4042890251968116  2.3932528741323518 -0.2703306390581733
  3.4071539309385739  0.7977509580441173 -0.7321805751381737
