 V  O 
 1.0000000000000000
     2.5906885106052298    0.0000000000000000    0.0000000000000000
     0.0000000000000001    2.5906885106052298    0.0000000000000000
     0.0000000000000001    0.0000000000000001    2.5906885106052298
 V   O  
   1   1
Cartesian
  0.0000000000000000  0.0000000000000000  0.0000000000000000
  1.2953442553026149  1.2953442553026149  1.2953442553026149
