 O  V 
 1.0000000000000000
     6.8408663870684849    0.0004622404667227   -0.0000000000000001
     0.0000414368529146    9.4528004198007860   -0.0000000000000002
     0.0000000000000002    0.0000000000000001    2.5469279716594047
 O   V  
   4  10
Cartesian
  4.8722484947393214  3.4845036806598380 -0.0000000000000001
  1.9675762239359118  5.9686773989970989 -0.0000000000000002
  1.4524408723054572  1.2426553463483336 -0.0000000000000000
  5.3889876234529392  8.2111712992737864 -0.0000000000000003
  5.7094764638399953  4.8586906624247561  1.2734639858297021
  1.1310170662292620  4.5934999672096612  1.2734639858297021
  2.2892891312483554 -0.1324448978819396  1.2734639858297023
  4.5523234941851722  0.1333199405815589  1.2734639858297023
 -0.3559047190885892  2.4424177769852875 -0.0000000000000000
  0.3557611549431203  7.0098169219075288 -0.0000000000000002
  3.0649795288419979  2.2837413398470590 -0.0000000000000001
  3.7757216119889359  7.1705012465786284 -0.0000000000000002
  3.4211376735285168  4.7267794609255835 -0.0000000000000002
 -0.0000615889970126 -0.0004800403899711  0.0000000000000000
