 O  V 
 1.0000000000000000
     4.6185862774959139    0.2765583713636443    0.3905586686052830
    -1.3372638814637887    4.7647530961083620   -0.4091620564014893
    -1.7760453587504759   -2.4352911388098279    6.6065567306253952
 O   V  
   2  10
Cartesian
 -1.7873679776926028 -2.4307083859227911  6.5982335496830524
  1.4124521418693874 -1.0770822534287903  3.4899998711389948
  1.0565107937635820 -0.4516233586955722  1.6268841659650661
  1.7650293998456486 -1.7089281655343009  5.3513742869780137
  0.9283902498254164  2.0603435385028086  2.3169853423050499
  3.2222405745241356  1.3126158144579152  1.3999749693157486
  2.3088308279022800  3.3383848186535880  0.4378621306713150
 -1.5662370406534261  2.5248732936520097  3.2443315379501301
 -0.8254760374816309 -0.7248664675378957  6.1307553308456146
  3.0514793369187609  0.0891085965676364  3.3244493942712734
 -1.7371471659425695  1.3023902912555636  5.1735645905655652
  0.5563584283179266  0.5497199627558806  4.2531940321660162
