 V  O 
 1.0000000000000000
     3.5418126617042796   -0.0000000000000001   -0.0000000000000001
     1.7709063308521400    3.0672997404812858   -0.0000000000000001
     1.7709063308521400    1.0224332468270956    2.8918779285680727
 V   O  
   1   3
Cartesian
  5.3127189925564196  3.0672997404812863  2.1689084464260544
  0.0000000000000000  0.0000000000000000  0.0000000000000000
  3.5418126617042800  2.0448664936541907  1.4459389642840363
  1.7709063308521400  1.0224332468270954  0.7229694821420182
