 O  V 
 1.0000000000000000
     5.5108180762069034   -0.1611621764319429    0.2384600654550034
     2.5299223526306092    4.9015491540998504    0.2560354451466207
     2.9740147326568835    1.7398347744147151    4.7581194289774809
 O   V  
   4   8
Cartesian
  5.5074791876216747  3.2402146540040824  2.6263602882208703
  2.7519293942498919  3.3206959546221428  2.5071179808674913
  4.0203500454393124  2.3702252749343407  0.2471508198258885
  4.2424121842808828  0.7894397417453121  2.4983246252109961
  5.3242471272809606  4.8636841588851052  3.9650950335480633
  8.4415638199812069  4.9722166439841038  3.8209078943914836
  6.8396161373350557  2.2844536975784435  3.9495640640243286
  6.9326277891099064  4.0801337310990240  1.3967731379530599
  2.5730093122860342  1.5077401913036002  1.4315630988476733
  5.6905581903238724  1.6164888230622474  1.2873864691299768
  4.0822722748783962  2.4000224050799819  3.8562293717086615
  4.1751132246555054  4.1959533756475640  1.3029119443110364
