 O  V 
 1.0000000000000000
     2.5392652091611017   -0.0000000000000001    0.0000000000000000
     0.0000000000000002    6.6999724353211425   -0.0000000000000001
     0.0000000000000003    0.0000000000000003    7.1901046856394908
 O   V  
   4   8
Cartesian
  0.6348163022902756  5.1162955684178586  1.5313994012568442
  1.9044489068708266  1.5836768669032839  5.6587052843826466
  0.6348163022902755  1.7663093507572896  2.0636529415629008
  1.9044489068708268  4.9336630845638556  5.1264517440765891
  1.9044489068708268  5.4745147118174735  7.1104186564053764
  0.6348163022902754  1.2254577235036646  0.0796860292341143
  1.9044489068708266  2.1245284941569067  3.6747383720538598
  0.6348163022902756  4.5754439411642407  3.5153663135856306
  0.6348163022902757  3.3690546846160077  5.9168766297289119
  1.9044489068708264  3.3309177507051362  1.2732280559105753
  0.6348163022902756  0.0190684669554366  4.8682803987303238
  1.9044489068708264 -0.0190684669554350  2.3218242869091710
