 V  O 
 1.0000000000000000
     4.2210693390607625   -0.0000000000000001   -0.0000000000000001
     2.1105346695303817    3.6555532787622100   -0.0000000000000002
     2.1105346695303817    1.2185177595874037    3.4464886832019683
 V   O  
   2   4
Cartesian
  7.3868713433563356  4.2648121585559124  3.0156775978017216
  1.0552673347651909  0.6092588797937017  0.4308110854002460
  4.2210693390607634  2.4370355191748070  1.7232443416009839
  3.1658020042955721  1.8277766393811050 -0.0000000000000001
  2.1105346695303817  2.4370355191748070  1.7232443416009842
  3.1658020042955721  0.6092588797937019  1.7232443416009842
