 O  V 
 1.0000000000000000
     5.2346684173094866    0.1485499712334519    0.0907951554964871
     4.4697736314812753    2.7285425077219427    0.0907951554964869
     4.4697736314812753    1.3251614088797985    2.3868672391071288
 O   V  
   1   2
Cartesian
  0.0000000000000000  0.0000000000000000  0.0000000000000000
  3.4202228629067495  1.0139852693685718  0.6197732113122750
 10.7540004663131477  3.1882428185412479  1.9486843387878277
