 O  V 
 1.0000000000000000
     2.5930106421000501    0.0000000000000000    0.0000000000000000
     0.0000000000000001    2.5930106421000501    0.0000000000000000
     0.0000000000000001    0.0000000000000001    2.5930106421000501
 O   V  
   1   1
Cartesian
  1.2965053210500250  1.2965053210500250  1.2965053210500250
  0.0000000000000000  0.0000000000000000  0.0000000000000000
