 O  V 
 1.0000000000000000
     4.0756492354599700    0.0025170154645233   -0.0023458660843773
    -0.0062840597560046    5.8669219380355395    0.0198506035668215
    -0.0090228433336925    0.1385960943029917    6.0445008695447120
 O   V  
   8   8
Cartesian
  2.9950868104981936  5.3139717045628920  5.5438466539333460
  3.2088195905323880  2.1858911237410745  5.2821940640812723
  0.8515227418378857  3.8221439240619826  0.7798115429458835
  3.0916004968774957  2.3051479746946844  2.5163018260938381
  0.9687010790004114  3.7028870479382157  3.5457038043919815
  1.1676040009387021  0.9642913307620017  3.7999223842473371
  2.8927383314315720  5.0437437170410533  2.2620832227798231
  1.0652555218720785  0.6940633432401637  0.5181589530938105
  1.2243877814857553  2.6243987569200762  5.2662813752674831
  3.1350928278934065  0.8486924106276087  0.9670207798252656
  2.9824045047894594  3.8518632555684351  3.9951594534224011
  2.8359545508845154  3.3836362908829778  0.7957242317596722
  3.2595027484988539  0.5216782114254841  3.8041234733078220
  0.8008395838714227  5.4863568363775688  2.2578821337193338
  0.9252495044768679  5.1593426371754445  5.0949848272018876
  1.0779378275808118  2.1561717922346157  2.0668461536047587
