 V  O 
 1.0000000000000000
     2.5126941781068082    0.0000000000000000   -0.0000000000000001
     0.0000000000000002    5.2462213649682328   -0.0718723135172743
     0.0000000000000003   -1.3123643123392759    6.9615153570631909
 V   O  
   6   2
Cartesian
  0.6281735445267023  4.6753433198018701  1.0134843823413564
  1.8845206335801064 -0.7414862671729139  5.8761586612045615
  1.8845206335801064  0.6700735892588308  3.3907506345346214
  0.6281735445267023  3.2637834633701246  3.4988924090112921
  1.8845206335801066  2.0997236415627700  5.7250861754324385
  0.6281735445267022  1.8341334110661860  1.1645568681134757
  0.6281735445267024  0.6311752292209284  5.0111757765701608
  1.8845206335801064  3.3026818234080286  1.8784672669757549
