 O  V 
 1.0000000000000000
     3.7465400615661215   -0.0514614688917611   -0.5452238445455740
    -0.0886689766410500    2.6668235479650297   -0.3712253960913366
    -0.9557138826682038   -0.6631412058354870    4.7066712766861700
 O   V  
   2   2
Cartesian
  1.3293698497364170  0.9536167782764193  4.0862893283321924
  0.7201929872645869  0.5364299460227180  1.3230745439162759
  1.2307732383556413 -0.5852876723019528  2.8334731961870929
  0.4271727964457520  1.6509750002431043 -0.3019635952379260
