 V  O 
 1.0000000000000000
     5.7793984498946616   -0.0000000000561005   -0.0000062837775143
    -0.0000000000561002    5.7793984498946616   -0.0000062837775143
    -2.8896697831408384   -2.8896697831408384    4.1046826146114954
 V   O  
   2   4
Cartesian
  0.0000147208611709  2.8897139458365517  2.0523350235282334
  0.0000000000000000  0.0000000000000000  0.0000000000000000
 -0.0009262404403728  4.3345561978634795  1.0261639746106441
  1.4448716938376749 -2.8887435427846166  3.0785092143345794
  0.0009409612734935  1.4448569729204053  1.0261679070288316
 -1.4448275311700127  2.8887877054522799  3.0785052819163923
