 V  O 
 1.0000000000000000
     5.7143694609892153   -0.0000000000754133    0.0000077333338365
    -0.0000000000754130    5.7143694609892153    0.0000077333338364
    -2.8572136221344384   -2.8572136221344389    4.1620795429870574
 V   O  
   2   4
Cartesian
 -0.0000144458764750  2.8571702846558389  2.0810475048273651
  0.0000000000000000  0.0000000000000000  0.0000000000000000
 -0.1283948090192106  4.2857698728246563  1.0405275158325138
  1.4285706965247282 -2.7288188132283460  3.1215636271552971
  0.1283803631050314  1.4285851423257916  1.0405238556617686
 -1.4286140340410340  2.7287754757120397  3.1215672873260436
