 V  O 
 1.0000000000000000
     5.8022318228586043    0.0220770173067806   -0.0569888635808095
     2.9234970139694325    5.0163933172565995   -0.0568545663973064
     2.8974188597108235    1.6812176023482170    4.6913014588963575
 V   O  
   4   8
Cartesian
  4.2076483265649243  0.8899885408811803  2.4203395031928028
  2.8486488705296340  3.1915805316774808  2.3826121557614179
  5.8737197660961575  3.3677186248607223  2.1193990556761024
  4.5054400178212148  2.6301485329872918 -0.0564803973197309
  3.0722068461571226  1.7714784685014142  1.1855637395926057
  7.2706180980084065  4.2036401756498778  1.2869223736378352
  5.9781259765105101  4.9309814184994751  3.3945698613171316
  7.2537984330296643  2.7200107646372809  3.3971821519953220
  5.6407585931884912  1.7615904688419179  1.1888210826637513
  4.3484566888686693  4.0108443882943883  1.1964090912478291
  4.3724395570003054  2.5354534656595851  3.2968403186558670
  8.5555091795069664  4.9448484932934180  3.3638396527407557
