 O  V 
 1.0000000000000000
     5.5109353973199733    0.1893662411808436   -0.2812853203060463
     2.9519758860261791    5.0684819481362027    0.0645125923908863
     2.5734306184421687    1.8454149779912257    4.5245232975434968
 O   V  
   4   8
Cartesian
  4.0419934242862272  1.0176234542768858  2.1213894952535117
  4.2316409514210900  2.6289165166505923 -0.1083015181606233
  2.7628943633405854  3.4565265668506648  2.2944294383928141
  5.5180482945875386  3.5515741864582786  2.1538487948275469
  2.5750651565906666  1.8518837196963085  0.9391816950633991
  5.6981490459045903  1.7630307978226716  1.0512187130826447
  4.0805418202142745  4.4375255691943716  0.9711942857474449
  4.2016900872094869  2.6063294228617018  3.5004984174605323
  6.8348335057035738  4.4963995725687074  0.8071879644998872
  6.9558506848763395  2.6658614301475807  3.3364148261631379
  5.3380619098022501  5.3406123154829421  3.2570084160621233
  8.4611150013518213  5.2516960988544783  3.3685130044563976
