 V  O 
 1.0000000000000000
     2.6602720720357724   -0.0000000000000003    0.0000000000000000
    -1.3301360360178860    2.3038631953612452    0.0000000000000000
     0.0000000000000005    0.0000000000000006    8.6797980802258596
 V   O  
   3   3
Cartesian
  0.4445911408184675  0.7700544444925945  4.3398990401129298
 -0.8855448951994186  1.5338087508686513  7.2331361341946474
  1.7710897903988381 -0.0000000000000001  1.4466619460312735
  0.4442403122465712  0.7694467915813238  0.0000000000000000
 -0.8858957237713151  1.5344164037799222  2.8932370940816559
  1.7717914475426311  0.0000000000000002  5.7865609861442033
