 V  O 
 1.0000000000000000
     4.4886550407941979    0.0000000000000000    0.0000000000000000
     0.0000000000000003    4.4886550407941979    0.0000000000000000
     0.0000000000000003    0.0000000000000003    4.4886550407941979
 V   O  
   6   2
Cartesian
  2.2443275203970989  1.1221637601985495  0.0000000000000000
  2.2443275203970994  3.3664912805956484  0.0000000000000000
  1.1221637601985497  0.0000000000000001  2.2443275203970989
  3.3664912805956484  0.0000000000000001  2.2443275203970989
  0.0000000000000002  2.2443275203970989  1.1221637601985495
  0.0000000000000004  2.2443275203970994  3.3664912805956484
  2.2443275203970989  2.2443275203970989  2.2443275203970989
  0.0000000000000000  0.0000000000000000  0.0000000000000000
