 O  V 
 1.0000000000000000
     4.9207389119207630   -0.0000000000000000    0.0000000000000000
     0.0000000000000000    4.9311335531404978    0.0000000000000000
     0.0000000000000000    0.0000000000000000    7.5809218964938898
 O   V  
  12   8
Cartesian
  0.6496379370201121  0.4867913307363322  5.1343536159372016
  0.6496379370201121  1.9787754458339173  2.4465682805566868
  1.8107315189402704  2.9523581073065821  6.2370292288036868
  1.8107315189402704  4.4443422224041651  1.3438926676902581
  4.2711009749006523  4.4443422224041651  2.4465682805566868
  4.2711009749006523  2.9523581073065821  5.1343536159372016
  3.1100073929804926  1.9787754458339166  1.3438926676902581
  3.1100073929804926  0.4867913307363322  6.2370292288036868
  0.2745528554391077  1.2327833882851245  0.0000000000000000
  2.1858166005212740  3.6983501648553734  3.7904609482469449
  4.6461860564816568  3.6983501648553734  0.0000000000000000
  2.7349223113994872  1.2327833882851245  3.7904609482469449
  1.0280532932347852  0.1665883219536962  3.1637344844261652
  1.0280532932347850  2.2989784546165533  4.4171116028487889
  1.4323161627255971  2.6321550985239459  0.6266506546018441
  1.4323161627255971  4.7645452311868013  6.9541954326730568
  3.8926856186859773  4.7645452311868013  4.4171116028487889
  3.8926856186859773  2.6321550985239459  3.1637344844261652
  3.4884227491951671  2.2989784546165533  6.9541954326730568
  3.4884227491951671  0.1665883219536962  0.6266506546018448
