 O  V 
 1.0000000000000000
     5.4184351806236553   -0.0000110376287472   -0.0000191175255638
    -1.8061357945903900    5.1085529554112750   -0.0000191175255636
    -1.8061357945903900   -2.5542513036286567    4.4241511701701670
 O   V  
   8   6
Cartesian
  1.1371321782010499  1.6081411803406700  2.7853518930145404
  1.1040598698592841  2.5542724004225481 -0.0000166207473304
  2.0401784441734603 -0.9461658885500738  1.6388098484401799
 -1.5721070434335611  0.6152137719238112  2.2120685231005339
  1.1371105468782650 -2.2232915403644027  3.8508854335252640
 -2.4751568793708176  3.1694391640999156  2.2120589645289273
  0.2340503824796122  0.3309958732637343  0.5732954254550205
  3.8132232758193281  2.5542668817185508 -0.0000261793189371
  2.2576905908773521  4.1506941448097239  0.5529878302922299
  2.2576871162707906  1.2771376338540970  1.1060186750169780
  3.1607619627791075 -1.2771290162202371  3.3180942601020615
 -2.2576662686314268  1.5964434461797881  3.8711155460640279
  0.4515443724672796 -0.3192729650258718  2.7650825329028770
 -0.4515269994344762  2.2349985988641139  1.6590399609789444
