 V  O 
 1.0000000000000000
     5.5881215060222251   -0.0000000000219134   -0.0000033845344350
    -0.0000000000219130    5.5881215060222251   -0.0000033845344349
    -2.7940386459613751   -2.7940386459613746    4.2655541978626088
 V   O  
   2   4
Cartesian
  0.0000110535084339  2.7940718065305030  2.1327737143968695
  0.0000000000000000  0.0000000000000000  0.0000000000000000
 -0.1833980890973713  4.1910966562768799  1.0663852038649271
  1.3970469567950827 -2.6106405568968727  3.1991639171960293
  0.1834091425948500  1.3970359032647364  1.0663868182647245
 -1.3970137962369118  2.6106737174550458  3.1991623027962310
