 O  V 
 1.0000000000000000
     5.8147677031494007    0.0847878327692615   -0.3803159481541163
     2.6449125354041598    5.1791054187656620   -0.3803156995631623
     2.9370307490268046    1.8275278767813994    4.3783494323942023
 O   V  
   4   8
Cartesian
  2.9404902940062461  1.8296805145282744  4.3751302286854727
  2.8457182019156502  1.7707026443322058  0.9076486498779593
  5.6544289927243252  3.5183742668070019  0.0718988992259761
  7.1229443672377277  4.4321382051977016  2.2610736154230775
  4.3687809568282203  2.7184041314215621  1.4135614756536814
  5.6069496403431565  5.2478842035683337  1.1597234051670926
  5.7172482008567833  3.5575050711948060  3.4237324042874322
  7.1850357888876086  2.7117203532014154  1.1597232816465697
  7.0608529455878069  6.1525560571939861  3.3624239491995880
  8.6389390941322812  3.6163922068270336  3.3624238256790626
  8.5285823859416201  5.3067704913222684  1.0984186297182061
  9.8770231808448230  6.1458196400413092  3.1085933615089525
