 V  O 
 1.0000000000000000
     5.7508801131072094   -0.0067785098988445   -0.0050549801887861
     2.8788422456796430    4.9753313452792707   -0.0035585038223096
     2.8789081203863982    1.6581750826898216    4.6919431068572699
 V   O  
   4   8
Cartesian
  5.7543907267247052  3.3132741986081644  2.3416442699912974
  4.3148441718332613  0.8257686295912433  2.3434589664422312
  2.8788045062659324  3.3167320648121486  2.3441938623662524
  4.3149602437660253  2.4843135754980019 -0.0043066941352571
  7.1911501281139749  4.1406757099119957  1.3427216390224592
  8.4866735641933904  4.8869006664731698  3.4551018052724500
  4.3174718029043522  2.4861175116433207  3.3406059600865863
  4.3174488075640109  3.9768410783165966  1.2273151106024809
  3.0219309227032527  1.7398636936308747  1.2282372069797720
  5.6076236017389949  1.7381455991432153  1.2268547915661008
  5.9010323728406888  4.8885930406088667  3.4564366731910696
  7.1911368548480148  2.6498773555607436  3.4560493136481756
