 V  O 
 1.0000000000000000
     2.5937476427543431   -0.0000000000000001   -0.0000000000000001
     0.0000000000000001    2.5937476427543431   -0.0000000000000001
     0.0000000000000001    0.0000000000000001    2.5937476427543431
 V   O  
   1   1
Cartesian
  0.0000000000000000  0.0000000000000000  0.0000000000000000
  1.2968738213771716  1.2968738213771716  1.2968738213771716
