 O  V 
 1.0000000000000000
     2.6461141607933198    0.0000000000000000    0.0000000000000000
     0.0000000000000002    2.6461141607933198   -0.0000000000000001
     0.0000000000000001    0.0000000000000001    2.4770933138152755
 O   V  
   1   1
Cartesian
  0.0000000000000000  0.0000000000000000  0.0000000000000000
  1.3230570803966599  1.3230570803966599  1.2385466569076378
