 O  V 
 1.0000000000000000
     5.5628404923492054   -0.0000092253417386   -0.0000159785865753
    -1.8542686655824199    5.2447003784052582   -0.0000159785865748
    -1.8542686655824201   -2.6223211845573293    4.5420605086812085
 O   V  
   6   8
Cartesian
 -0.4635585424951185  2.2945649859588535  1.7032587094922000
  0.4635801022463344 -0.3277791052501682  2.8387778313091463
 -2.3178315200277817  1.6389930941485629  3.9742889638328043
  3.2450003484209380 -1.3111614132913612  3.4065294029243312
  2.3178573917292411  1.3111765799240529  1.1354991485837269
  2.3178617036794837  4.2613157640286312  0.5677315983819666
  0.3241145476891020  0.4583653169598204  0.7939033704837939
  3.6633745826902220  2.6223425750911571 -0.0000211771775741
 -2.4572944837842940  3.0168160730333509  2.2710170664563178
  1.2512600951815183 -2.1639690123250421  3.7481435674995502
 -1.5301601509930842  0.3944658838307216  2.2710250557496052
  2.1783944279727283 -0.8528084200463776  1.4771133131589460
  0.8819543365156189  2.6223471877620264 -0.0000131878842864
  1.2512661282812849  1.7695503012129157  3.0649176462378236
