 O  V 
 1.0000000000000000
     2.6320309684761618    0.1112412073355476    0.1142776251818327
     1.5849163147966034    7.0422686506334840   -0.4215634192214716
     1.6211177552499694   -0.4434360044683481    7.0619367627338905
 O   V  
   4   8
Cartesian
  2.8678298098750119  1.0285046073981630  3.8597862152322424
  1.7968942502631096  2.8376312226479592  0.8737008879899255
  4.0535496542781226  3.8912011067469581  5.9023143269003739
  2.9824419736011638  5.7007930977758674  2.9154324688114746
  4.2318179952049757  4.6614242243088491  4.1030100375691152
  2.8194268454569329  2.4743810219438078  5.1872257090743101
  3.0307987288143874  4.2545109529271281  1.5886477978501941
  1.6185560617910615  2.0674206765404994  2.6722139843336694
  1.4934045846752939 -0.0741618639815389  5.0669372646998756
  0.6132258538132566  1.2927891769716648  0.2265418503495123
  4.3567120950741822  6.8032324330637053  1.7082977085027435
  2.6053987333097028  5.3246631195018690  6.4347720987468016
