 V  O 
 1.0000000000000000
     5.6111346605519508    0.0002221436836270    0.0000380868742460
     0.0005835564184284   10.6978642563995621   -0.0000318144736445
     0.0000200030053337   -0.0000153626680940    3.3048577853296104
 V   O  
   4  10
Cartesian
  3.8976385382252876  3.9405209858853047  0.0000953462559435
  1.7126132105888026  6.7600405688835483  0.0000113601890657
  1.0931785649342960  1.4111273957776564  0.0000346932344062
  4.5198585265574822  9.2897292664248283  0.0000122900999601
  4.5469908786851851  4.2821520213788942  1.6517191208394146
  1.0675127456295386  6.4147673361637318  1.6516540292648929
  1.7384648367448516  1.0656317779539801  1.6527762032757103
  3.8702087313232503  9.6307184332621905  1.6527797248655784
  0.0187836265031056  2.6583675325405496  0.0003112480890049
  5.5925006279789384  8.0394464448203209  0.0002966150450076
  2.8250570590027673  2.6903351883303777 -0.0000955593994037
  2.7872905758540312  8.0070365889765824 -0.0002239263488210
  2.8047308267688336  5.3480433540192944  0.0008206495099385
  0.0014357675972727 -0.0005999745834211 -0.0003693554847019
