 O  V 
 1.0000000000000000
     2.6650600927450379    0.0257407456854174   -0.3428835222294029
    -0.0176536419700527    2.6586391517490218    0.3330028183508343
    -0.0018626537719451   -0.0249417012247540    6.0389374074635240
 O   V  
   2   2
Cartesian
  1.4366206017652485  0.6154419777225513  0.1010632964719281
  0.5991455619046490  1.4241706764602509  2.9168288476639752
  2.0304135991683823  0.0204755606973387  3.1641215586241191
  0.0033490907938974  1.9941757254206414  5.8925903872186876
