 O  V 
 1.0000000000000000
     3.1924067923462696    0.2815933997566605   -0.1903554700926794
     0.4999137075865303    5.5327442654394625    0.0864948861510925
     0.1860109701050939    2.3863834383462983    7.0771136978085813
 O   V  
   6   2
Cartesian
  1.5317078167717715  1.8282640957728364  1.5576480433330986
  2.3466236532661222  6.3724570077695866  5.4156050705338998
  0.5605069302509791  5.1780130023816051  0.6990474751308711
  0.1254177474406428  2.7411147014041517  6.4645611088288053
  0.6824224357804715  5.4559765194219523  3.3057664295961087
  3.1959090342574217  2.7447445841204692  3.6674866842708904
  0.1643383365046146  1.4704099366113363  5.1402733927197097
  0.0216726336004774  0.9159735017349631  1.9368403050888756
