 O  V 
 1.0000000000000000
     3.5738153086194151   -0.0000000000000001   -0.0000000000000001
     1.7869076543097080    3.0950148456981372   -0.0000000000000002
     1.7869076543097080    1.0316716152327126    2.9180079803549175
 O   V  
   1   2
Cartesian
  0.0000000000000000  0.0000000000000000  0.0000000000000000
  5.3607229629291231  3.0950148456981372  2.1885059852661874
  1.7869076543097078  1.0316716152327126  0.7295019950887293
