 O  V 
 1.0000000000000000
     5.3643130084486197    0.2956704095621138    0.4625742358981388
     0.2630320876499607    4.8860694186930127    0.1644305542271352
    -2.2732463079273657   -2.4106714310108104    4.2354563487359043
 O   V  
   2   8
Cartesian
  4.8309023487486762  3.1550433534477218  0.5049381767812674
  3.3886041231881507  0.7061088186094358  0.2921385118218888
 -0.5077092049167544  1.1237553501208692  1.1609499080707935
  1.0875908286829068  0.0331021418498184  3.4099928118787028
 -1.4047091077744280 -0.2043678288901077  3.0817348988907280
 -0.3514450196812964 -2.4489311139781513  3.2758209778266871
  0.9336071732846787  3.6041989930079912  1.2930162792688897
  1.9868331320591592  1.3592934154707641  1.4880869229539042
  3.4753863031024568  3.9276623713491512  1.6765903323872471
  2.7352891550273020  2.4090107668579606  3.5186594103563031
