 O  V 
 1.0000000000000000
     3.5899207472161612    0.0000000000000000    0.0000000000000000
     0.0000000000000000    3.5899207472161612    0.0000000000000000
     0.0000000000000000    0.0000000000000000    3.5899207472161612
 O   V  
   1   3
Cartesian
  0.0000000000000000  0.0000000000000000  0.0000000000000000
  0.0000000000000000  1.7949603736080806  1.7949603736080806
  1.7949603736080806  1.7949603736080806  0.0000000000000000
  1.7949603736080806  0.0000000000000000  1.7949603736080806
