 O  V 
 1.0000000000000000
     4.9806871288719679    0.0000000000000000    0.0000000000000000
     0.0000000000000004    4.9806871288719679    0.0000000000000000
     0.0000000000000002    0.0000000000000002    2.5014500238276129
 O   V  
   2   4
Cartesian
  2.4903435644359839  2.4903435644359839  0.0000000000000000
  0.0000000000000000  0.0000000000000000  0.0000000000000000
  1.5685807723533549  4.0589243367893379  1.2507250119138065
  3.4121063565186143  0.9217627920826295  1.2507250119138065
  0.9217627920826296  1.5685807723533547  1.2507250119138065
  4.0589243367893379  3.4121063565186143  1.2507250119138065
