 V  O 
 1.0000000000000000
     4.4136543309596119   -0.0000000000000001    0.0000000000000001
    -2.2068271654798051    3.8223367741342349    0.0000000000000001
     0.0000000000000002    0.0000000000000005    4.8771696205765203
 V   O  
   5   1
Cartesian
 -0.0000220682716769  2.5482372572120835  0.0000000000000001
  2.2068492337514840  1.2740995169221514  0.0000000000000001
  2.2068271654798060  0.0000000000000002  2.4385848102882601
  1.1034135827399034  1.9111683870671177  2.4385848102882601
 -1.1034135827399025  1.9111683870671177  2.4385848102882601
  0.0000000000000000  0.0000000000000000  0.0000000000000000
