 V  O 
 1.0000000000000000
     4.4483562336300659   -0.0000000000000001    0.0000000000000001
    -2.2241781168150321    3.8523895034065019    0.0000000000000001
     0.0000000000000002    0.0000000000000005    4.8434833238620207
 V   O  
   5   1
Cartesian
 -0.0000222417811904  2.5682725102360258  0.0000000000000001
  2.2242003585962244  1.2841169931704761  0.0000000000000001
  2.2241781168150330  0.0000000000000002  2.4217416619310104
  1.1120890584075169  1.9261947517032512  2.4217416619310104
 -1.1120890584075160  1.9261947517032512  2.4217416619310104
  0.0000000000000000  0.0000000000000000  0.0000000000000000
