 V  O 
 1.0000000000000000
     5.7491671593965421   -0.0257350113393606   -0.0090888427555356
    -2.8505438195612376    4.9914433561726774    0.0154293453660523
    -2.8725229013324762   -1.6579241142026677    4.6946742494535467
 V   O  
   4   8
Cartesian
  1.4383221290320329 -0.8418295627710142  2.3427927033490055
  0.0130502192514141  1.6538921153153245  2.3505073760320316
 -1.4252719097806188  2.4957216780863387  0.0077146726830262
 -2.8615333604468569  1.6667596209850049  2.3550517974097995
 -2.7112250467252941  3.2449259104867210  1.2436616976100754
 -1.4180274201876317  2.4871146599451581  3.3504265648483860
 -0.1274485084917042  3.2335093624328506  1.2396914522809894
  1.4560375780890853  2.3074884267599929  3.4633893554809601
  0.1535489469945333  0.0742748681977978  3.4613232997830741
  1.4441278586904609  0.8206695706854905  1.3505881872156771
 -1.4299371395862570  1.0002958038706571  1.2376253965831032
  2.7373254852281232  0.0628583201439277  3.4573530544539866
