 V  O 
 1.0000000000000000
     3.5956059098989166   -0.0000001199867908   -0.0000000011846288
     1.7978062549250227    5.0495079622662722   -0.1536825334903790
     1.7978043299957860    3.4438395077832453    3.4810119140816247
 V   O  
   2   4
Cartesian
  3.5955913261749468  5.6220884724737603  0.9763895322429526
  3.5956251686447760  2.8712588775889665  2.3509398471636640
  1.7977860659426763  2.4797095590643821  2.1004249351913349
  5.3933944728179375  6.0136377909995433  1.2269044442152930
  3.5955902398954280  4.6349940222708907  2.8089444775538319
  3.5956262549242983  3.8583533277918360  0.5183849018527849
