 O  V 
 1.0000000000000000
     5.8227216867709135   -0.0690069405508886   -0.3493807396130184
     2.8307955980773056    5.0887568306358100   -0.3493807396130184
     2.9823386307560535    1.7300010528835850    4.4178668138686268
 O   V  
   4   8
Cartesian
 -0.0162342632263376 -0.0094172043994999  0.0146468095143044
  2.9251982421274061  1.6968549401416264  0.9151295241463445
  5.7812406318746437  3.3535938129135237  0.1155074272173053
  7.2724099472526706  4.2185943393553167  2.3244408341516190
  4.4641168842094210  2.5895539930419780  1.4671475973218575
  5.7859999471180537  5.0829789484714842  1.2122282907865356
  5.8182259977694866  3.3750483591141154  3.4730478110149781
  7.2848213181623453  2.4991696103109655  1.2122282907865356
  7.2599985763429942  5.9380190683996670  3.4366533775167016
  8.7588199473872859  3.3542097302391487  3.4366533775167016
  8.7265938967358530  5.0621403195965167  1.1758338572882594
 10.0807030102959185  5.8476346856686536  3.1817340709813786
