 O  V 
 1.0000000000000000
     2.9658322845179041   -0.0000000000000001   -0.0000000000000001
     1.4829161422589523    2.5684861017565419   -0.0000000000000001
     1.4829161422589523    0.8561620339188475    2.4215919199139355
 O   V  
   1   1
Cartesian
  0.0000000000000000  0.0000000000000000  0.0000000000000000
  2.9658322845179046  1.7123240678376948  1.2107959599569678
