 O  V 
 1.0000000000000000
     5.3751899955214313   -0.2284648560382541   -0.3563828131496047
    -0.2651575096682320    4.7988784876063040    1.1081267723795276
    -2.8720094337336013   -1.1296578119410583    4.4784835544089434
 O   V  
   2   8
Cartesian
  0.5640358304781531  2.3348399746213913  0.4863751854580652
  1.9822538327743753 -0.0530324734884407 -0.1222736785229347
 -0.6703295972333294  1.3606627016181014  1.6655908009689804
  0.3443576322675144 -0.2085800040629964  3.1767306222647913
 -1.1655431214760053  2.3292104562694118  3.8381691957164836
 -2.5187878774709374 -0.1907244817995473  3.4941038349262206
  0.5745855292538369  3.6218229389346464  2.1125267634863150
  2.1924377905929409  1.3423494925110040  1.3489008082313099
  3.3565947176494908  3.7685675478914828  1.7792766886496012
  1.4276401894424384  1.9538291918176109  3.8149488554623474
