 V  O 
 1.0000000000000000
     3.1982152432088968    0.0000000000042689    0.0000022511815485
     0.0000000000042689    3.1982152432088968    0.0000022511815486
    -1.5991000829752886   -1.5991000829752884    4.3817979162666765
 V   O  
   3   1
Cartesian
  0.0000037693177816  1.5991113909200958  2.1909012093148870
  1.5991076216065829  1.5991076216065829  0.0000022511815485
  1.5991113909200956  0.0000037693177817  2.1909012093148870
  0.0000000000000000  0.0000000000000000  0.0000000000000000
