 V  O 
 1.0000000000000000
     5.7912862077561273   -0.1137624645344198   -0.0811070319663905
     2.8906229010468873    4.9000261170746251   -0.0000000090366277
     2.8906229010468873    1.5973950854188743    4.6323411887611483
 V   O  
   4   8
Cartesian
  2.9025905204482991  1.5903685362726954  1.1338544065277700
  5.7902614691773975  1.3293986284738322  2.9153560786078931
  5.7902614691773975  3.1894725676740343  0.3063764327080385
  7.4182884192831349  4.0891410261879617  2.9153560735822457
  4.3902156819495053  2.3285171582324069  1.6601180042992429
  5.8666460649938132  3.1444114200815174  4.0261579584424059
  5.8666460649938132  4.8312813323247408  1.6601179997213027
  7.1888794783404224  2.3644003014700163  1.6857009174115620
  7.2149961184890454  5.6516569296532762  4.0293529252591984
  8.5864114946798651  3.2382943083010050  4.0057558868940442
  8.5864114946798651  4.8425993758237551  1.7555231521778221
  9.9905771200570470  5.6185592109067484  4.0057558825669926
