 V  O 
 1.0000000000000000
     2.6528131913457180    0.0000000000000000    0.0000000000000000
     0.0000000000000000    4.9576649481567321    0.0000000000000000
     0.0000000000000000    0.0000000000000000    8.3427196531802075
 V   O  
   6   4
Cartesian
  1.3264065956728590  4.1450150272850683  6.4083430129435559
  1.3264065956728590  0.8126499208716649  1.9343766402366553
  0.0000000000000000  1.6661825532067009  6.1057364668267553
  0.0000000000000000  3.2914823949500298  2.2369831863534486
  0.0000000000000000  0.0000000000000000  4.1713598265901037
  1.3264065956728590  2.4788324740783660  0.0000000000000000
  1.3264065956728590  4.1212043594446328  0.9967445922814745
  1.3264065956728590  0.8364605887120967  7.3459750608987298
  0.0000000000000000  1.6423718853662710  3.1746152343086300
  0.0000000000000000  3.3152930627904649  5.1681044188715815
