 O  V 
 1.0000000000000000
     2.7937943651820900   -0.0000000000000001   -0.0000000000000001
     0.0000000000000001    2.7937943651820900    0.0000000000000000
     0.0000000000000002    0.0000000000000002    4.6737473242103267
 O   V  
   2   2
Cartesian
  2.0953457738865673  2.0953457738865673  3.8474646404242785
  0.6984485912955225  0.6984485912955225  0.8262826837860486
  2.0953457738865673  2.0953457738865673  1.3725409950490544
  0.6984485912955226  0.6984485912955226  3.3012063291612721
