 V  O 
 1.0000000000000000
     5.7838991058183522   -0.0779113723102697   -0.0553005367215721
     2.8677575026963584    4.9176621176853947    0.0000000797047217
     2.8677575026963584    1.6226579304868418    4.6422388935023760
 V   O  
   4   8
Cartesian
  2.8911261970947253  1.6090284370389742  1.1420686548066192
  5.7669732677721424  1.3724277773817180  2.9386999830017162
  5.7669732677721424  3.2269659380153053  0.3258932787159211
  7.3810427558398546  4.1402518958720966  2.9387000281864295
  4.3702795040413154  2.3593192466804962  1.6746158714723161
  5.8343023215378267  3.1877045726514659  4.0445316175663404
  5.8343023215378267  4.8698416807305147  1.6746159119680752
  7.1652357949903003  2.4115279318781662  1.7116729560460677
  7.1690116647698217  5.7043339624737133  4.0488663003861278
  8.5567750565237972  3.3016274478127388  4.0314491608969538
  8.5567750565237972  4.8950825280650667  1.7864750724483465
  9.9436147999612707  5.6797954983530694  4.0314491994423705
