 V  O 
 1.0000000000000000
     4.1228153457712216    0.0000000000000000    0.0000000000000000
     0.0000000000000000    5.3900826895217699    0.0000017813120078
     0.0000000000000000   -2.6950536440879906    7.6574629970991790
 V   O  
  11   3
Cartesian
  0.0000000000000000 -0.5300450965389255 -0.0000002107671834
  0.0000000000000000 -0.4137346620572114  6.3365747284771414
  0.0000000000000000  2.2813147704912571  1.3208897992722106
  0.0000000000000000 -0.9946242211601417  3.1316930451320122
  0.0000000000000000  1.7004149592028801  4.5257710746005344
  2.0614076728856108  0.7167331865992274  6.5325167103333541
  2.0614076728856108  3.4117293791601950  1.1249485172962188
  2.0614076728856108  0.1642624455472962  4.3284606459559276
  2.0614076728856108  2.8593054823097068  3.3290041855244774
  2.0614076728856108 -2.0695911290603068  5.5357801387737640
  2.0614076728856108  0.6254557261330698  2.1216833338670460
  2.0614076728856108 -0.2767072077757381 -0.0000000109931709
  0.0000000000000000  3.1080810514762609  5.8928087274336214
  0.0000000000000000  0.4130463055073271  1.7646562754838278
