 V  O 
 1.0000000000000000
     5.0712374832725224    0.7062998006420644   -0.1025605604698650
     2.4913302841596856    4.4732071755468779   -0.1025605604698648
    -3.8186794971006659   -2.6153652705420050    2.2905668252152855
 V   O  
   3   1
Cartesian
  2.5137411583740779  0.3449867822233019  1.0427228521377778
  1.2301471119574625  2.2191549234236341  1.0427228521377780
  3.7812838837161040  2.5897534880944710 -0.1025605604698649
  0.0000000000000000  0.0000000000000000  0.0000000000000000
