 V  O 
 1.0000000000000000
     5.0123322594354107    0.0000000000000000    0.0000000000000000
    -0.0000000000000000    5.0003340704063177    0.0000000000000000
     0.0000000000000000    0.0000000000000000    5.0217565685589385
 V   O  
   8   4
Cartesian
  3.2151785111960622  0.7072428661837946  0.7464455804317238
  0.7090123814783592  1.7929241690193649  4.2753109881272167
  1.7971537482393456  3.2074099013869546  1.7644327038477432
  4.3033198779570538  4.2930912042225220  3.2573238647111906
  0.7090123814783592  0.7072428661837946  1.7644327038477432
  3.2151785111960622  1.7929241690193649  3.2573238647111906
  4.3033198779570538  3.2074099013869546  0.7464455804317238
  1.7971537482393456  4.2930912042225220  4.2753109881272167
  2.5061661297177054  0.0000000000000000  2.5108782842794692
  0.0000000000000000  2.5001670352031589  2.5108782842794692
  2.5061661297177054  2.5001670352031589  0.0000000000000000
  0.0000000000000000  0.0000000000000000  0.0000000000000000
