 V  O 
 1.0000000000000000
     3.6962146077466915    0.0000000000000000    0.0000000000000000
     0.0000000000000002    3.6961904127411351   -0.0002350604152564
     0.0000000000000002    0.0028162950726962    3.6961893472838954
 V   O  
   1   3
Cartesian
  1.8481073038733458  1.8495033539069157  1.8479771434343195
  1.8481073038733458  1.8480952063705676 -0.0001175302076282
  1.8481073038733458  0.0014081475363481  1.8480946736419477
  0.0000000000000002  1.8495033539069157  1.8479771434343195
