 V  O 
 1.0000000000000000
     3.0068131297801726    0.1524711575458389   -0.0000000000000000
    -0.2884611750997839    2.9968254540032602   -0.0000000000000000
     0.0000000000000000   -0.0000000000000002    4.0286170828707792
 V   O  
   2   2
Cartesian
  2.3589681163865976  0.7116661066751673  1.0071542707176948
  0.3593838382937909  2.4376305048739320  3.0214628121530844
  0.6838071895347927  2.1576007205227707  1.0071542707176948
  2.0345447651455970  0.9916958910263289  3.0214628121530844
