 V  O 
 1.0000000000000000
     4.4894793609650545    0.0000000000000000    0.0000000000000000
     0.0000000000000002    4.4894793609650545    0.0000000000000000
     0.0000000000000002    0.0000000000000002    4.4894793609650545
 V   O  
   6   2
Cartesian
  1.1223698402412636  0.0000000000000001  2.2447396804825273
  3.3671095207237909  0.0000000000000001  2.2447396804825273
  0.0000000000000001  2.2447396804825273  1.1223698402412636
  0.0000000000000003  2.2447396804825273  3.3671095207237909
  2.2447396804825273  3.3671095207237909  0.0000000000000000
  2.2447396804825273  1.1223698402412636  0.0000000000000000
  0.0000000000000000  0.0000000000000000  0.0000000000000000
  2.2447396804825273  2.2447396804825273  2.2447396804825273
