 V  O 
 1.0000000000000000
     5.3783838340878560   -0.0877613855949363   -0.1521671370851681
     1.5167850849319857    5.1608214204433587   -0.1521671370851682
     3.0152818498233964    2.2184671653145442    4.0969410230847974
 V   O  
   4   8
Cartesian
  3.4927304458853810  2.5697457807949102  3.5553317767138615
  2.0001640961488238  1.4716031845603750  1.4897609335995505
  4.6863908056153258  3.4479709174445818  0.3219087065291395
  6.1940317305270245  4.5572045001018537  2.3703792180715380
  3.5336898790464462  2.5998813243703940  1.6369067169993319
  4.6641127284107373  5.0671433846665614  1.3408898074704731
  5.0353988844642217  3.7047505493059067  3.6773173769105849
  6.2255732715933627  2.9448475451397242  1.3408898074704731
  6.1624901894606845  6.1695614550639828  3.3998686286726030
  7.7239507326433090  4.0472656155371460  3.3998686286726030
  7.3526645765898255  5.4096584508978012  1.0634410592324919
  8.8543735820076002  6.5145276758333130  3.1038517191437434
