 O  V 
 1.0000000000000000
     5.5906363400681318    0.0000000000000000    0.0000000000000000
     0.0000000000000000    5.5906363400681318    0.0000000000000000
     0.0000000000000001    0.0000000000000000    5.5906363400681318
 O   V  
  12   4
Cartesian
  0.1022592791042400  4.1730953618164577  3.3375829496281071
  2.8975774491383088  4.2128591482857400  2.2531092968034039
 -0.1022592791042400  1.3777771917823907 -0.5422647795940410
  4.2128591482857400  2.2531092968034039  2.8975774491383093
  2.6930588909298274  1.4175409782516739  0.5422088732306621
  0.5422088732306621  2.6930588909298274  1.4175409782516739
  1.4175409782516739  0.5422088732306621  2.6930588909298274
  1.3777771917823907 -0.5422647795940410 -0.1022592791042400
  3.3375829496281071  0.1022592791042400  4.1730953618164577
  4.1730953618164577  3.3375829496281071  0.1022592791042400
  2.2531092968034034  2.8975774491383093  4.2128591482857400
 -0.5422647795940410 -0.1022592791042400  1.3777771917823907
  4.5137314322146729  3.8722230778875253  1.7184132621806070
  3.8722230778875253  1.7184132621806070  4.5137314322146720
  1.7184132621806070  4.5137314322146729  3.8722230778875253
  1.0769049078534589  1.0769049078534589  1.0769049078534589
