 O  V 
 1.0000000000000000
     5.6405928624353514    0.0000000000000000    0.0000000000000000
     2.8202964312176761    4.8848967112741981    0.0000000000000000
     2.8202964312176761    1.6282989037580664    4.6055247865837998
 O   V  
   4   8
Cartesian
  5.6405928624353514  3.2565978075161324  2.3027623932918999
  4.2304446468265136  2.4424483556370991  0.0000000000000000
  2.8202964312176761  3.2565978075161324  2.3027623932918999
  4.2304446468265136  0.8141494518790332  2.3027623932918999
  2.7051158539118711  1.5617993664451433  1.1043589228662143
  7.0507410780441893  4.0707472593951648  1.0103143753067434
  5.5254122851295477  4.9513962485871215  3.5011658637175853
  7.0507410780441893  2.3094492810112537  3.5011658637175853
  5.7557734397411568  1.5617993664451433  1.1043589228662143
  4.2304446468265144  4.2037463340210115  1.1043589228662143
  4.2304446468265144  2.4424483556370995  3.5952104112770567
  8.5760698709588326  4.9513962485871215  3.5011658637175853
