 O  V 
 1.0000000000000000
     4.0379631740083379   -0.0000000000000001   -0.0000000000000001
     2.0189815870041690    3.4969786882372644   -0.0000000000000001
     2.0189815870041690    1.1656595627457549    3.2969831254898758
 O   V  
   1   3
Cartesian
  6.0569447610125069  3.4969786882372644  2.4727373441174065
  0.0000000000000000  0.0000000000000000  0.0000000000000000
  4.0379631740083379  2.3313191254915098  1.6484915627449379
  2.0189815870041690  1.1656595627457549  0.8242457813724690
