Sr Mn  W  O 
 1.0000000000000000
     0.0000000000000000    5.7465950000000001   -0.0074350000000000
     0.0000000000000000   -0.0003110000000000    8.1298460000000006
     5.7900410000000004    0.0000000000000000    0.0000000000000000
 Sr  Mn  W   O  
   4   2   2  12
Cartesian
  0.1862424588060000  0.0345969734680000  2.0384489829420005
  3.0812629588060005  2.8385450265320005  2.0227565170580002
  2.7087780411940003  2.9077389734679997  6.0996544829420003
  5.6037985411940001  5.7116870265320001  6.0839620170580000
  0.0000000000000000  2.8732975000000001 -0.0037175000000000
  2.8950205000000002 -0.0001555000000000  4.0649230000000003
  2.8950205000000002  0.0000000000000000  0.0000000000000000
  0.0000000000000000  2.8731420000000001  4.0612055000000007
  1.5642085263550001  1.7292595899959999  3.7541090465840004
  4.4592290263550005  1.1438824100040001  0.3070964534160000
  4.2258324736450001  4.0170244100039998  4.3683019534160001
  1.3308119736450001  4.6024015899960000  7.8153145465840010
  1.1686676654810000  4.4210743467020004  4.3391377436730005
  4.0636881654810004  4.1983516532980003  7.8444787563269998
  4.6213733345190002  1.3252096532980000  3.7832732563270004
  1.7263528345190002  1.5479323467020003  0.2779322436730000
  0.0992992031500000  2.4767720729330001  5.9763538743920002
  2.9943197031500004  0.3960589270670000  6.2146976256080002
  5.6907417968500003  3.2695119270669997  2.1460571256079999
  2.7957212968500000  5.3502250729330001  1.9077133743920001
