Na  Y Se  O 
 1.0000000000000000
     5.3960839800000002    0.0000000000000000    0.0000000000000000
     0.0000000000000000    8.5332665199999997    0.0000000000000000
     0.0000000000000000    0.0000000000000000   12.6962634800000007
 Na  Y   Se  O  
   4   4   8  24
Cartesian
  4.2898477504128252  8.4500596621554624  7.8489416834919892
  4.2898477504128252  4.3498401178445381  1.5008099434919893
  1.5918057604128248  0.0832068578445376  4.8473217965080106
  1.5918057604128248  4.1834264021554617 11.1954535365080119
  1.3016505544472936  1.5052533662442551  1.0676652343093878
  3.9996925444472935  7.0280131537557446 11.6285982456906130
  3.9996925444472935  5.7718866262442550  5.2804665056906126
  1.3016505544472936  2.7613798937557448  7.4157969743093881
  4.0399822975622834  8.2686756103470245  2.5623724648344455
  1.3419403075622840  4.0020423503470246  3.7857592751655553
  4.2926646141720646  2.2656563298133934  5.2893175788130602
  1.5946226241720645  6.2676101901866055  7.4069459011869405
  4.0399822975622834  4.5312241696529743  8.9105042048344458
  1.5946226241720645  6.5322895898133941  1.0588141611869404
  1.3419403075622840  0.2645909096529748 10.1338910151655561
  4.2926646141720646  2.0009769301866065 11.6374493188130597
  5.3670754419361177  1.2624300514898137  6.1413007205263641
  0.3300058257662292  7.4256202805918186 10.1596504641401282
  1.0457047941680886  0.8179226412045112  8.5520494553398922
  2.0489788309804422  4.8187741742086709  6.5451486747662315
  0.0992088926016930  6.6672701649493966  6.7221888007224910
  2.6690334519361172  7.2708364685101863  6.5549627594736366
  2.9150229516246635  4.6623739907828199  3.6117274018782468
  0.3300058257662292  5.3742794994081811  3.8115187241401274
  0.0992088926016930  6.1326296150506030  0.3740570607224904
  3.7437467841680885  7.7153438787954887  4.1442140246601076
  0.2169809616246636  0.3957407307828196  2.7364043381217535
  2.7972508826016931  1.8659963550506031  5.9740746792775097
  3.7437467841680885  5.0845559012045110 10.4923457646601079
  1.0457047941680886  3.4487106187954888  2.2039177153398919
  5.3670754419361177  3.0042032085101864 12.4894324605263645
  2.0489788309804422  7.9811256057913287  0.1970169347662308
  3.0280478157662296  3.1589870205918187  8.8847447558598738
  4.7470208209804419  3.7144923457913297  6.1511148052337692
  2.6690334519361172  5.5290633114898133  0.2068310194736360
  0.2169809616246636  3.8708925292171803  9.0845360781217543
  3.0280478157662296  1.1076462394081812  2.5366130158598734
  2.9150229516246635  8.1375257892171806  9.9598591418782476
  2.7972508826016931  2.4006369049493967 12.3222064192775100
  4.7470208209804419  0.5521409142086704 12.4992465452337704
