Na La Mn  W  O 
 1.0000000000000000
     5.7111539999999996    0.0000000000000000    0.0000000000000000
     0.0000000000000000    5.6394200000000003    0.0000000000000000
     0.0000000000000000    0.0242440000000000    8.1066269999999996
 Na  La  Mn  W   O  
   2   2   2   2  12
Cartesian
  4.4201761940699997  1.4426120593600000  4.0553401567499998
  1.5645991940699999  4.2210519406399998  4.0512868432499998
  4.0721384693099996  1.3689877233640000  0.0005350373820000
  1.2165614693100000  4.2946762766360003  8.1060919626179988
  4.2811153053239996  4.2462523992160000  5.9796426342479991
  1.4255383053239998  1.4174116007840001  2.1269843657520000
  4.3174953563039997  4.2128414166920010  2.1148406385059997
  1.4619183563039997  1.4508225833080002  5.9917863614939995
  1.3057068720959999  0.9444742440800000  4.1998002498900000
  4.1612838720959999  4.7191897559200005  3.9068267501100000
  1.5975125745720000  1.9189640747600001  8.0271009891300000
  4.4530895745720001  3.7446999252400004  0.0795260108700000
  3.1138582284959999  2.4320937378080001  5.8166832182940000
  0.2582812284960000  3.2315702621920002  2.2899437817060000
  3.2581619566139994  2.6330359978720002  2.2484378514659999
  0.4025849566140000  3.0306280021280005  5.8581891485339996
  2.8005443200559998  5.3684374311640006  1.5528730416120000
  5.6561213200560001  0.2952265688360000  6.5537539583880005
  5.4805661572499993  0.1241356381080000  1.5653653538189998
  2.6249891572499999  5.5395283618919997  6.5412616461809998
