Na La Mg  W  O 
 1.0000000000000000
     5.6035320000000004    0.0000000000000000    0.0000000000000000
     0.0000000000000000    5.6035320000000004    0.0000000000000000
     0.0000000000000000    0.0000000000000000    8.0197990000000008
 Na  La  Mg  W   O  
   2   2   2   2  12
Cartesian
  0.0000000000000000  0.0000000000000000  4.0098995000000004
  2.8017660000000002  2.8017660000000002  4.0098995000000004
  0.0000000000000000  0.0000000000000000  0.0000000000000000
  2.8017660000000002  2.8017660000000002  0.0000000000000000
  0.0000000000000000  2.8017660000000002  2.0466847839960001
  2.8017660000000002  0.0000000000000000  5.9731142160040003
  0.0000000000000000  2.8017660000000002  5.9591517459450012
  2.8017660000000002  0.0000000000000000  2.0606472540550000
  1.3642022795280002  1.4375637204720000  6.1786376049770002
  1.4375637204720000  1.3642022795280002  1.8411613950230001
  0.0000000000000000  2.8017660000000002  7.9914089115400007
  1.3642022795280002  4.1659682795280002  6.1786376049770002
  0.0000000000000000  2.8017660000000002  4.0895040248740004
  2.8017660000000002  0.0000000000000000  0.0283900884600000
  1.4375637204720000  4.2393297204720009  1.8411613950230001
  4.2393297204720009  1.4375637204720000  6.1786376049770002
  2.8017660000000002  0.0000000000000000  3.9302949751260003
  4.2393297204720009  4.1659682795280002  6.1786376049770002
  4.1659682795280002  4.2393297204720009  1.8411613950230001
  4.1659682795280002  1.3642022795280002  1.8411613950230001
