Ba Nb  O 
 1.0000000000000000
     6.1409310000000001    0.0000000000000000    0.0000000000000000
     0.0000000000000000    4.0104290000000002    0.0000000000000000
     0.0000000000000000    0.0641610000000000   10.6760350000000006
 Ba  Nb  O  
   2   4  12
Cartesian
  0.0000000000000000  0.0000000000000000  0.0000000000000000
  3.0704655000000001  0.0320805000000000  5.3380175000000003
  3.3459783693150005  1.8823283640449999  1.6031240916350000
  0.2755128693150000  2.1601811359550003  3.7348934083650005
  2.7949526306850001  2.1922616359550000  9.0729109083650012
  5.8654181306849997  1.9144088640449999  6.9411415916350006
  3.5934333248910004  4.0115761599180004  1.6049176655149999
  0.5229678248910000  0.0309333400820000  3.7330998344850004
  2.5474976751090002  0.0630138400820000  9.0711173344850007
  5.6179631751089998  4.0436566599180006  6.9429351655150011
  5.4229272065489997  2.0266608934210000  2.1051432854400001
  2.3524617065490001  2.0158486065790000  3.2328742145599998
  4.9174917396630002  2.0490256266509999  4.9409864343849996
  1.8470262396630002  1.9934838733489999  0.3970310656150000
  1.2234392603369999  2.0255643733489999  5.7350485656150010
  4.2939047603370000  2.0811061266510000 10.2790039343850008
  3.7884692934510005  2.0587413934209997  7.4431607854400008
  0.7180037934510000  2.0479291065790002  8.5708917145600001
