Ca  V Bi  O 
 1.0000000000000000
     4.5093180000000004   -6.0379990000000001    0.0000000000000000
     4.5093180000000004    6.0379990000000001    0.0000000000000000
     0.0000000000000000    0.0000000000000000    5.6071819999999999
 Ca  V   Bi  O  
   4   2   2  12
Cartesian
  1.7828625856140004 -1.2910026801870000  4.2528456884479997
  7.2357734143860002  1.2910026801870005  1.4492546884480002
  1.7828625856140001  1.2910026801870000  1.4492546884480002
  7.2357734143860002 -1.2910026801870005  4.2528456884479997
  4.5093180000000004  3.8143126522820001  1.7081270670240001
  4.5093180000000004 -3.8143126522819997  4.5117180670239998
  4.5093180000000004  1.0816833688540004  4.1663661204619995
  4.5093180000000004 -1.0816833688540004  1.3627751204620000
  5.8934892346440009  0.0580976263780000  0.0243575986080000
  4.5093180000000004  3.8176093997359999  5.5614834667000004
  5.9165318496240005  3.0391422646640001  2.3865231956580000
  3.1021041503760003 -3.0391422646640001  5.1901141956579995
  5.8934892346440009 -0.0580976263780003  2.8279485986080002
  4.5093180000000004  5.3976088260599999  2.4426118372040002
  3.1251467653560003  0.0580976263779999  0.0243575986080000
  3.1251467653560003 -0.0580976263779997  2.8279485986080002
  4.5093179999999995 -5.3976088260599999  5.2462028372039997
  4.5093180000000004 -3.8176093997359994  2.7578924667000000
  5.9165318496240014 -3.0391422646640005  5.1901141956579995
  3.1021041503760003  3.0391422646640001  2.3865231956580000
