Ca Mn  O Ti 
 1.0000000000000000
    -0.0000920000000000   -5.3577515000000000    0.0000252500000002
    -5.3578290000000006   -0.0000920000000022    0.0000260000000010
    -2.6789420000000006   -2.6789035000000014   -3.8692872499999993
 Ca  Mn  O   Ti 
   2   1   6   1
Cartesian
 -2.6790019379320005 -5.3577836869612510 -1.9346365667354983
 -5.3578597226107503 -2.6789633130157524 -1.9345994332709988
 -2.6789611698780007 -2.6789317957727494  0.0000207884094995
 -5.3579109784212511 -5.3578416412982524 -1.9559338073637487
 -2.6789500123630008 -2.6789033495150010 -1.9133012253272492
 -4.3302431531514998 -6.9792714899852513 -3.8692483298277494
 -3.7066191770900012 -1.0574735008509992  0.0000132971432515
 -6.9795146452552510 -6.3855843543597510 -3.8692266638304988
 -1.0573463455935006 -1.6511633153475005 -0.0000044995349992
 -0.0000926696665001 -5.3577481514122507  0.0000242826592505
