Sr Cu  W  O 
 1.0000000000000000
    -2.7279429999999998    2.7279429999999998    4.3625189999999998
     2.7279429999999998   -2.7279429999999998    4.3625189999999998
     2.7279429999999998    2.7279429999999998   -4.3625189999999998
 Sr  Cu  W   O  
   2   1   1   6
Cartesian
  2.7279429999999998  0.0000000000000000  2.1812594999999999
  0.0000000000000000  2.7279429999999998  2.1812594999999999
  0.0000000000000000  0.0000000000000000  4.3625189999999998
  0.0000000000000000  0.0000000000000000  0.0000000000000000
  1.0553565804670000  1.6397310740409998  0.0000043625189999
  1.6725864195329998  1.0882119259589997  4.3625146374809995
  3.8161521980159994  1.0553593084100001 -0.0000000000000003
 -1.0882091980160000  1.6725836915899999  4.3625189999999998
  0.0000000000000000 -0.0000000000000000  1.9617549939959997
  0.0000000000000001 -0.0000000000000001  6.7632830060039995
