Ca Fe Ge  O 
 1.0000000000000000
     5.3996874999999998   -0.1026000000000000    1.1009580000000003
     1.2608839999999999    6.7412460000000003    0.7616070000000000
    -0.1149445000000000    0.0370980000000000    6.9148540000000001
 Ca  Fe  Ge  O  
   2   2   4  12
Cartesian
  4.3531694146359996  1.9954969517190000  5.8736869406074996
  2.1925553875450001  4.6803024846839998  2.9037146592559999
  5.1865686235185011  6.0618975388980001  2.1409747934585006
  1.3589788153519997  0.6139894486020001  6.6363206286104992
  4.6357679837690000  2.5150028768190005  2.4441422104670005
  4.8805651244480011  5.4232043160450001  5.6785435825950001
  1.9098427579434998  4.1607450241920008  6.3333153565864997
  1.6651223736525003  1.2525148212960002  3.0988790484224999
  3.1913487781399992  2.1485065872060005  3.5265400666800000
  5.9612629566819999  4.0298765932170006  6.2114992191434997
  3.3543354070525004  4.5271660422180009  5.2510344687405004
  0.5843704409170001  2.6458166509320002  2.5659381162399999
  0.8906683140839996  0.7618154255100000  4.5690635534639998
  2.2465321319270011  2.5288044613560001  6.8096009179940005
  5.6548140799750000  5.9137109467740014  4.2082089602444999
  4.2989988831695003  4.1469319129350017  1.9679365203895003
  4.8918075678975006  1.2916106104890004  1.2210217236965011
  4.6095535508390002  6.5898446417490018  6.9523471158135006
  1.6538483575844993  5.3843316453120007  7.5562654150060000
  1.9361584204255009  0.0858676494240000  1.8251563217810003
