Ta Sn  O 
 1.0000000000000000
     2.4615800000000001    8.7163400000000006    0.0000000000000000
    -2.4615800000000001    8.7163400000000006    0.0000000000000000
     0.0000000000000000    0.1405640000000000    5.6201580000000000
 Ta  Sn  O  
   4   2  12
Cartesian
  1.2590538615600002 11.7909204438080017  4.7025660436559997
 -1.2590538615600002 11.7206384438080011  1.8924870436560000
  1.2587289330000000  5.8306366808240000  3.7386752257080000
 -1.2587289330000000  5.7603546808240012  0.9285962257080000
  1.3276704040600000  8.7342562332320011  1.4799168650339998
 -1.3276704040600000  8.8045382332320017  4.2899958650340002
 -0.1750724927599999  6.2678118628439998  2.3871115290780001
  0.2070607248600001 11.3088234544560002  3.2079805662419996
  0.2981638006600001  3.9063171986440004  3.6381305990880000
  0.1750724927599999  6.3380938628440004  5.1971905290780001
 -2.0487164176600001 10.0482984180800017  2.2794517824299998
  2.0561676203199997  7.5235671426039996  3.3744608865179999
  2.0487164176600001 10.1185804180800005  5.0895307824299998
 -0.2911630671400000 13.6660419323880014  1.9870743027959998
 -2.0561676203200001  7.4532851426039999  0.5643818865180000
 -0.2981638006600000  3.8360351986440002  0.8280515990880000
  0.2911630671400002 13.7363239323880002  4.7971533027960005
 -0.2070607248599999 11.2385414544559996  0.3979015662420000
