Sr Mn  O 
 1.0000000000000000
     3.8183270800000000    0.0000056100000000    0.0000002100000000
     0.0000134800000000    8.6308440900000001    0.0000299200000000
     0.0000003100000000    0.0000169800000000    8.6308002500000001
 Sr  Mn  O  
   5   5  13
Cartesian
  1.9091736787180653  2.4353179499559503  0.9718942229339964
  1.9091848298346268  7.6589282767627447  2.4353664434213660
  1.9091527945218925  0.9718959395265990  6.1954878437479417
  1.9091663894394613  6.1955521824255042  7.6589590286985896
  1.9091829207917292  4.3153440108748935  4.3154624001683821
  0.0000012382866992  1.7158091027027409  3.4520930164562520
  3.8183345533366642  6.9150563689862272  5.1787447860274947
  0.0000244160534375  5.1787365618102443  1.7157641655132456
  3.8183034715681670  3.4520887763313834  6.9150173640133090
 -0.0000066820821092 -0.0000068183257086  0.0000258923767457
  0.0000117247232811  6.1316984182052154  3.4603304565980730
  0.0000274943422177  6.8073687979370501  0.6542654446410672
  1.9091643758475807  7.1910633868855030  5.0487923689535172
  0.0000157494697089  0.6541003063453186  1.8235822164142979
  0.0000042101736362  5.1705424092608663  6.1318122528832317
 -0.0000021732285115  2.4990578734221298  5.1705407956476561
 -0.0000048457161923  1.8235587297618994  7.9766594917765490
  1.9091647341858689  1.4401118457157036  3.5820086673946268
  1.9091317822873257  3.5820310351166671  7.1907265520774732
  1.9091974417175814  5.0487808383543893  1.4397724913102976
  0.0000123591275817  7.9766755774520472  6.8073534216702338
  1.9091646473185782  0.0000048764310369  0.0000137416716367
  0.0000253877322294  3.4603381665406392  2.4990538213142970
