Lu Fe  O 
 1.0000000000000000
     5.2409910000000002    0.0000000000000000    0.0000000000000000
     0.0000000000000000    5.5814370000000002    0.0000000000000000
     0.0000000000000000    0.0000000000000000    7.6658470000000003
 Lu  Fe  O  
   4   4  12
Cartesian
  0.1158730700190000  5.1816219233790006  5.7493852500000004
  2.7363685700190001  3.1905335766209997  1.9164617500000001
  2.5046224299810000  2.3909034233790001  5.7493852500000004
  5.1251179299810001  0.3998150766210000  1.9164617500000001
  0.0000000000000000  2.7907185000000001  3.8329235000000001
  2.6204955000000001  0.0000000000000000  3.8329235000000001
  2.6204955000000001  0.0000000000000000  0.0000000000000000
  0.0000000000000000  2.7907185000000001  0.0000000000000000
  3.6059013868290002  1.7217561043230001  3.3273992195850002
  0.9854058868290000  1.0689623956770000  4.3384477804150006
  4.2555851131709996  4.5124746043229997  0.5055242804150001
  1.6350896131710000  3.8596808956770006  7.1603227195850003
  1.6350896131710000  3.8596808956770006  4.3384477804150006
  4.2555851131709996  4.5124746043229997  3.3273992195850002
  0.9854058868290000  1.0689623956770000  7.1603227195850003
  3.6059013868290002  1.7217561043230001  0.5055242804150001
  0.6792953254920000  2.4976316616930001  1.9164617500000001
  3.2997908254919999  0.2930868383070000  5.7493852500000004
  1.9412001745080001  5.2883501616930007  1.9164617500000001
  4.5616956745080008  3.0838053383070001  5.7493852500000004
