System
1.0
-4.022345 -6.508454 0.0
-4.022345 6.508454 0.0
0.0 0.0 -7.655845
O Pb V 
18 3 6 
direct
0.1510002584047714 0.3760003966865436 0.03250002122562645 O
0.8490009846527523 0.6240008463709802 0.03250002122562645 O
0.8270008668055375 0.3140005515230971 0.19400012670066252 O
0.1730003762519861 0.6860006915344268 0.19400012670066252 O
0.5000006215287618 0.5000006215287618 0.25600016719262686 O
0.17900020962362342 0.1380001844256116 0.29200019070408995 O
0.8210010334339003 0.8620010586319121 0.29200019070408995 O
0.16200029030408838 0.4450004642318285 0.4450002906278084 O
0.8380009527534351 0.5550007788256952 0.4450002906278084 O
0.4450004642318285 0.16200029030408836 0.5550003624683902 O
0.5550007788256952 0.8380009527534353 0.5550003624683902 O
0.13800018442561157 0.1790002096236234 0.7080004623921086 O
0.862001058631912 0.8210010334339002 0.7080004623921086 O
0.5000006215287618 0.5000006215287618 0.7440004859035717 O
0.6860006915344268 0.1730003762519861 0.8060005263955361 O
0.314000551523097 0.8270008668055375 0.8060005263955361 O
0.3760003966865436 0.1510002584047714 0.9670006315440239 O
0.6240008463709801 0.8490009846527524 0.9670006315440239 O
0.0 0.0 0.0 Pb
0.8050008089773864 0.19500043408013729 0.5000003265480992 Pb
0.19500043408013723 0.8050008089773864 0.5000003265480992 Pb
1.5711796735873307e-07 0.5000004644107945 0.07840005120274196 V
0.2450003450855289 0.37400042436707825 0.2650001730704926 V
0.7550008979719949 0.6260008186904453 0.2650001730704926 V
0.37400042436707825 0.2450003450855289 0.735000480025706 V
0.6260008186904453 0.7550008979719947 0.735000480025706 V
0.5000004644107945 1.5711796735873307e-07 0.922000602154695 V
