System
1.0
2.744234 -1.584384 -4.280755
-2.744234 -1.584384 -4.280755
0.0 3.168769 -4.280755
Cr Gd O
2 2 6
direct
0.0 0.0 0.0 
0.49999988936122985 0.49999988936122985 0.49999846925219904 
0.24999994468061493 0.24999994468061493 0.24999923462609952 
0.7499998340418447 0.7499998340418448 0.7499977038782984 
0.7500002867822713 0.3419996920799323 0.15799856111667862 
0.6579998420152858 0.8420001102143798 0.24999800374076928 
0.15799949991362935 0.7500003628150625 0.3419986772501901 
0.8420002788088302 0.2499994159073971 0.6579982612542079 
0.3419999367071738 0.1579996685080797 0.7499989347636287 
0.24999949194018833 0.6580000866425274 0.8419983773877193 
