System
1.0
6.70623013 0.00252685 -0.89039651
-3.01518633 5.99017339 -0.89039651
-0.0080318 -0.01304085 6.79030168
Rb Al O 
6 2 6 
direct
0.369740920370733 0.36974084330034684 0.6530751516397968 Rb
0.630259334845458 0.6302590575792207 0.3469261441774223 Rb
0.19831243507513774 0.8016882798712806 0.5000007314239857 Rb
0.8016878201410533 0.1983116210082871 0.5000005643932333 Rb
0.2678031401234129 0.7321976646679959 6.194993255603798e-07 Rb
0.7321974468328297 0.2678023775670591 4.909423237664523e-07 Rb
0.8439334121597193 0.8439331149744965 0.8536578653856846 Al
0.15606684305647187 0.15606678590507125 0.14634343043153442 Al
0.8531291528140572 0.6002040282791039 0.7379961387190099 O
0.39979570463232317 0.14687073641640874 0.26200508708178544 O
0.1468711024021337 0.39979587260046373 0.26200515709820915 O
0.6002045505838678 0.8531291644631588 0.7379962087354336 O
0.9009614949902173 0.9009610293741305 0.13213602495923082 O
0.09903876022597354 0.09903887150543707 0.8678652708579883 O
