System
1.0
7.779246 0.0 0.0
0.0 3.589413 0.0
0.0 0.0 3.589413
Al Fe O
2 2 5
direct
0.0 0.0 0.0 
0.49999974290580707 0.0 0.0 
0.2479998724812803 0.5000004178959773 0.5000004178959773 
0.7519996133303338 0.5000004178959773 0.5000004178959773 
0.15199992184336536 0.5000004178959773 0.0 
0.8479995639682487 0.5000004178959773 0.0 
0.15199992184336536 0.0 0.5000004178959773 
0.8479995639682487 0.0 0.5000004178959773 
0.49999974290580707 0.5000004178959773 0.5000004178959773 
