System
1.0
4.944755 -4.944055 0.0
-4.944755 0.0 -4.944055
4.944755 4.944055 0.0
Ir O Tl 
2 8 4 
direct
0.0 0.0 0.0 Ir
0.7500002528654611 0.5000005056583166 0.24999974720714446 Ir
0.10699989079341386 0.21500021743307612 0.32300010923780664 O
0.07250036203062582 0.7150007230913927 0.3570006497502079 O
0.6419999272370429 0.28500028822524043 0.3569996390118024 O
0.6430003610608033 0.7150007230913927 0.3580000728355628 O
0.10699989180465785 0.785000793883557 0.8920006856882149 O
0.10799931438439078 0.21500021743307612 0.8930001082679478 O
0.6769998908347992 0.785000793883557 0.8930001092791918 O
0.6429993508280198 0.28500028822524043 0.9269996380419436 O
0.3750006320547443 0.7500007584874749 0.125000379225586 Tl
0.3750001264327306 0.7500007584874749 0.6250003792618888 Tl
0.3749996208107168 0.2500002528291583 0.6249998736398751 Tl
0.8749996208470195 0.2500002528291583 0.6249993680178613 Tl
