System
1.0
2.679659 -1.547102 -4.260586
-2.679659 -1.547102 -4.260586
0.0 3.094205 -4.260586
Ag Fe O
2 2 6
direct
0.2499997383586131 0.2499997383586131 0.24999981915494174 
0.7499992150758394 0.7499992150758394 0.7499994574648253 
0.0 0.0 0.0 
0.4999994767172262 0.4999994767172262 0.4999996383098835 
0.7499996819215627 0.3409998345528669 0.15899930997918366 
0.6589996748293185 0.8409996069102541 0.249999075295486 
0.1589997312663688 0.7499995107160005 0.34099958447124407 
0.8409992221680836 0.24999944271845206 0.6589996921485229 
0.34099927860513396 0.15899934652419834 0.7500002013242809 
0.24999927151288961 0.6589991188815857 0.8409999666405832 
