System
1.0
4.69851373 -0.0054088 2.62380888
1.53748606 4.43983853 2.6238152
-0.00761693 -0.00542142 5.38147544
La Ni O 
2 2 6 
direct
0.7500002977867407 0.7499994632459482 0.7499981621664128 La
0.2500004325958237 0.25000015441518864 0.2499997207214319 La
0.5000003651912823 0.49999980883056844 0.4999989414439223 Ni
0.0 0.0 0.0 Ni
0.30375925470528253 0.7499418999331864 0.1963244040310076 O
0.7499437445811328 0.1963251401812975 0.30375953217965945 O
0.19632658371343503 0.3037591519519605 0.7499410873402489 O
0.6962414756772821 0.2500577177279504 0.803673478856837 O
0.8036741466691298 0.6962404657091763 0.25005679554759586 O
0.250056985801432 0.8036744774798393 0.6962383507081852 O
