System
1.0
-2.779453 4.814152 0.0
2.779453 4.814152 0.0
0.0 3.209435 -5.059506
La O Ti 
2 6 2 
direct
0.6290002321550199 0.6290002321550199 0.11399990987269518 La
0.3709999275151641 0.3709999275151641 0.8859992995369117 La
0.5610002853963686 0.19299988819548347 0.2729997841688227 O
0.9730004711644452 0.5610000264721501 0.2729997841688227 O
0.19299975143038334 0.9730005933235636 0.2729997841688227 O
0.8070004083061916 0.02679956619714105 0.7269994252407841 O
0.026799688356259593 0.439000133264425 0.7269994252407841 O
0.4389998742738155 0.8070002714747005 0.7269994252407841 O
0.842000228822087 0.842000228822087 0.47299962605074397 Ti
0.1579999308480969 0.1579999308480969 0.5269995833588628 Ti
