System
1.0
4.84605 0.0 0.0
0.0 6.428654 0.0
0.0 0.349327 8.858929
Hg Se O
4 2 8
direct
0.07233 0.19026687808939974 0.5217879411003361 
0.07233 0.8097330533345837 0.9782118895789897 
0.9276700000000001 0.8097332835981284 0.47821194601921446 
0.9276700000000001 0.19026710835294441 0.021787997540560766 
0.44299200000000005 0.4999999657119918 0.7499999153396628 
0.557008 0.5000001959755364 0.24999997177988761 
0.771268 0.5053701282252622 0.4043699543545326 
0.771268 0.49463026372581065 0.09562998920524261 
0.22873200000000002 0.494630033462266 0.5956299327650179 
0.22873200000000002 0.5053698979617175 0.9043698979143079 
0.379444 0.7200243392582882 0.2361449733438462 
0.379444 0.2799760526927846 0.263854970215929 
0.620556 0.7200241089947436 0.7361449169036215 
0.620556 0.2799758224292399 0.7638549137757041 
