System
1.0
8.860571739 0.0 0.0
0.0 8.860571739 0.0
0.0 0.0 8.860571739
Cu O Se 
16 32 8 
direct
0.618000121290391 0.882000173103762 0.11800002315900669 Cu
0.1240000243365833 0.3650000716359106 0.12300002414032053 Cu
0.3650000716359106 0.12300002414032053 0.1240000243365833 Cu
0.8770001721224481 0.6240001224679675 0.13500002649547377 Cu
0.12300002414032053 0.1240000243365833 0.3650000716359106 Cu
0.6350001246268581 0.6230001222717049 0.376000073794801 Cu
0.8760001719261853 0.8650001697672948 0.3770000739910637 Cu
0.3820000749723776 0.3820000749723776 0.3820000749723776 Cu
0.882000173103762 0.11800002315900669 0.618000121290391 Cu
0.376000073794801 0.6350001246268581 0.6230001222717049 Cu
0.13500002649547377 0.8770001721224481 0.6240001224679675 Cu
0.6230001222717049 0.376000073794801 0.6350001246268581 Cu
0.3770000739910637 0.8760001719261853 0.8650001697672948 Cu
0.8650001697672948 0.3770000739910637 0.8760001719261853 Cu
0.6240001224679675 0.13500002649547377 0.8770001721224481 Cu
0.11800002315900669 0.618000121290391 0.882000173103762 Cu
0.9890001941038781 0.4890000959724939 0.010600002080385348 O
0.46900009204723847 0.7340001440568722 0.015800003100951743 O
0.26600005220589645 0.5160001012715886 0.030800006044893274 O
0.7210001415054561 0.31600006201903486 0.03400000667293414 O
0.9660001895898346 0.22100004337407186 0.18400003611234944 O
0.18400003611234944 0.9660001895898346 0.22100004337407186 O
0.48400009499117996 0.5310001042155301 0.23400004592548787 O
0.7400001452344488 0.7600001491597042 0.24000004710306447 O
0.26000005102831986 0.26000005102831986 0.26000005102831986 O
0.5160001012715886 0.030800006044893274 0.26600005220589645 O
0.8160001601504191 0.4660000914584502 0.2790000547573125 O
0.03400000667293414 0.7210001415054561 0.31600006201903486 O
0.2790000547573125 0.8160001601504191 0.4660000914584502 O
0.7340001440568722 0.015800003100951743 0.46900009204723847 O
0.5310001042155301 0.23400004592548787 0.48400009499117996 O
0.010600002080385348 0.9890001941038781 0.4890000959724939 O
0.5110001002902748 0.5110001002902748 0.5110001002902748 O
0.030800006044893274 0.26600005220589645 0.5160001012715886 O
0.23400004592548787 0.48400009499117996 0.5310001042155301 O
0.7790001528886968 0.6840001342437337 0.5340001048043185 O
0.5340001048043185 0.7790001528886968 0.6840001342437337 O
0.31600006201903486 0.03400000667293414 0.7210001415054561 O
0.015800003100951743 0.46900009204723847 0.7340001440568722 O
0.7600001491597042 0.24000004710306447 0.7400001452344488 O
0.24000004710306447 0.7400001452344488 0.7600001491597042 O
0.9840001931225643 0.9690001901786227 0.7660001503372807 O
0.6840001342437337 0.5340001048043185 0.7790001528886968 O
0.4660000914584502 0.2790000547573125 0.8160001601504191 O
0.22100004337407186 0.18400003611234944 0.9660001895898346 O
0.7660001503372807 0.9840001931225643 0.9690001901786227 O
0.9690001901786227 0.7660001503372807 0.9840001931225643 O
0.4890000959724939 0.010600002080385348 0.9890001941038781 O
0.46200009067339914 0.5380001055893696 0.03790000743835893 Se
0.7840001538700105 0.2840000557386263 0.21600004239275802 Se
0.21600004239275802 0.7840001538700105 0.2840000557386263 Se
0.5380001055893696 0.03790000743835893 0.46200009067339914 Se
0.03790000743835893 0.46200009067339914 0.5380001055893696 Se
0.7160001405241423 0.7160001405241423 0.7160001405241423 Se
0.2840000557386263 0.21600004239275802 0.7840001538700105 Se
0.9620001888047834 0.9620001888047834 0.9620001888047834 Se
