System
1.0
2.566447 5.825732 0.0
-2.566447 5.825732 0.0
0.0 1.8832 6.408491
Sr Cu P O 
2 1 2 8 
direct
0.8294322792824927 0.8294322792824927 0.2166990338143619 Sr
0.1705680388012344 0.1705680388012344 0.7833011222286373 Sr
0.5000001590418637 0.5000001590418637 0.5000000780214996 Cu
0.1424930416076752 0.1424930416076752 0.28987204523249627 P
0.8575072764760521 0.8575072764760521 0.7101281108105029 P
0.11440441048957105 0.6241478146345963 0.5635040879308543 O
0.37585250344913085 0.8855959075941562 0.436496068112145 O
0.8855959075941562 0.37585250344913085 0.436496068112145 O
0.6241478146345962 0.1144044104895711 0.5635040879308543 O
0.2712970895676721 0.2712970895676721 0.14154302208679423 O
0.9503183052559745 0.9503183052559745 0.8323491298822343 O
0.049682012827752704 0.049682012827752704 0.16765102616076488 O
0.7287032285160552 0.7287032285160552 0.858457133956205 O
