System
1.0
0.0 6.386423 0.0
0.0 0.0 6.441815
7.88982 0.0 0.0
B K Li O 
4 4 8 12 
direct
0.7500003523100578 0.8319993542197701 0.15600000000000003 B
0.25000011743668593 0.33199974230885065 0.344 B
0.7500003523100578 0.6679994815129887 0.656 B
0.25000011743668593 0.16799986960206897 0.8440000000000001 B
0.25000011743668593 0.6019995327407471 0.00802 K
0.7500003523100578 0.10199992082982759 0.49200000000000005 K
0.25000011743668593 0.8979993029920117 0.5080000000000001 K
0.7500003523100578 0.397999691081092 0.992 K
0.0406000190717178 0.036699971514261506 0.139 Li
0.4590002156137554 0.036699971514261506 0.139 Li
0.5410002541329885 0.5369995831923277 0.36100000000000004 Li
0.9590004504871273 0.5369995831923277 0.36100000000000004 Li
0.0406000190717178 0.46299964062951154 0.639 Li
0.4590002156137554 0.46299964062951154 0.639 Li
0.5410002541329885 0.9629992525404311 0.8610000000000001 Li
0.9590004504871273 0.9629992525404311 0.8610000000000001 Li
0.7500003523100578 0.9959992269265517 0.038000000000000006 O
0.5590002625884298 0.7609994093284196 0.21300000000000002 O
0.9410004420316859 0.7609994093284196 0.21300000000000002 O
0.05860002752715918 0.26099979741750007 0.28700000000000003 O
0.441000207158314 0.26099979741750007 0.28700000000000003 O
0.25000011743668593 0.4959996150156323 0.4620000000000001 O
0.7500003523100578 0.5039996088062069 0.538 O
0.5590002625884298 0.7389994264043391 0.7130000000000001 O
0.9410004420316859 0.7389994264043391 0.7130000000000001 O
0.05860002752715918 0.23899981449341953 0.7870000000000001 O
0.441000207158314 0.23899981449341953 0.7870000000000001 O
0.25000011743668593 0.0036599971591879314 0.9620000000000001 O
