System
1.0
7.03963411 -0.0 0.0
-0.0 9.39494297 0.0
0.0 0.0 9.82994569
Al B Pb O 
8 8 8 32 
direct
0.5000002919187514 0.0 0.4999997807720284 Al
0.0 0.7500002370957133 0.8342449842201682 Al
0.0 0.2500000790319044 0.1657545773238886 Al
0.5000002919187514 0.7500002370957133 0.3342452034481398 Al
0.0 0.0 0.0 Al
0.5000002919187514 0.2500000790319044 0.665754358095917 Al
0.5000002919187514 0.5000001580638088 0.4999997807720284 Al
0.0 0.5000001580638088 0.0 Al
0.7782815443896881 0.25270766988784843 0.9058485228251573 B
0.7217193313665662 0.25270766988784843 0.405848742053129 B
0.7217193313665662 0.7527078279516572 0.5941508194909279 B
0.7782815443896881 0.7527078279516572 0.09415103871889942 B
0.22171903944781474 0.24729248817596047 0.9058485228251573 B
0.22171903944781474 0.7472926462397693 0.09415103871889942 B
0.27828125247093666 0.7472926462397693 0.5941508194909279 B
0.27828125247093666 0.24729248817596047 0.405848742053129 B
0.5693170123884288 0.5492621736368876 0.8300205860723815 Pb
0.43068357144907404 0.45073814249073013 0.1699789754716753 Pb
0.43068357144907404 0.9507383005545389 0.8300205860723815 Pb
0.9306838633678255 0.5492621736368876 0.33002080530035305 Pb
0.5693170123884288 0.04926201557307871 0.1699789754716753 Pb
0.06931672046967736 0.45073814249073013 0.6699787562437037 Pb
0.9306838633678255 0.04926201557307871 0.6699787562437037 Pb
0.06931672046967736 0.9507383005545389 0.33002080530035305 Pb
0.3324358340883939 0.8871760804607721 0.6086927031149497 O
0.6712054818747036 0.31509991961175543 0.8048506571082913 O
0.8324361260071453 0.11282423566684557 0.8913066392011355 O
0.667564749749109 0.11282423566684557 0.39130685842910706 O
0.8364167783311981 0.8301777724420385 0.9826648591445635 O
0.667564749749109 0.6128243937306544 0.6086927031149497 O
0.3324358340883939 0.3871759223969633 0.39130685842910706 O
0.3993206931382602 0.9291496637297769 0.3431440495463861 O
0.8993209850570115 0.07085065239784087 0.15685573122564225 O
0.8324361260071453 0.6128243937306544 0.10869292234292131 O
0.8287953938815507 0.31509991961175543 0.30485087633626284 O
0.10067959878049122 0.9291496637297769 0.8431438303184146 O
0.6635840974250562 0.8301777724420385 0.48266507837253503 O
0.3287951019627992 0.6849003965158623 0.19514890443576552 O
0.17120518995595221 0.18490023845205342 0.30485087633626284 O
0.17120518995595221 0.6849003965158623 0.6951486852077938 O
0.3287951019627992 0.18490023845205342 0.8048506571082913 O
0.10067959878049122 0.42914950566596793 0.15685573122564225 O
0.6712054818747036 0.8151000776755642 0.19514890443576552 O
0.6635840974250562 0.3301776143782297 0.5173344831715218 O
0.6006798906992427 0.07085065239784087 0.6568555119976707 O
0.8364167783311981 0.3301776143782297 0.017334702399493376 O
0.3364164864124467 0.6698227017493882 0.48266507837253503 O
0.3364164864124467 0.16982254368557917 0.5173344831715218 O
0.1675644578303575 0.3871759223969633 0.8913066392011355 O
0.8287953938815507 0.8151000776755642 0.6951486852077938 O
0.16358380550630475 0.16982254368557917 0.017334702399493376 O
0.6006798906992427 0.5708508104616498 0.3431440495463861 O
0.8993209850570115 0.5708508104616498 0.8431438303184146 O
0.16358380550630475 0.6698227017493882 0.9826648591445635 O
0.1675644578303575 0.8871760804607721 0.10869292234292131 O
0.3993206931382602 0.42914950566596793 0.6568555119976707 O
