System
1.0
4.82951769 0.0 0.0
0.0 8.10645987 -0.0208979
0.0 2.99171492 11.81895359
Na Si O
8 8 20
direct
0.755293408736643 0.6215768488363712 0.44394311558819627 
0.2552936478908445 0.3784233168572765 0.056057214260309574 
0.2447061129549539 0.3784235641078349 0.5560573665722779 
0.7447058738007524 0.6215770960869296 0.9439432679001645 
0.2249891223857607 0.8617993933449797 0.47245759692265393 
0.7249888832315592 0.13820077234866804 0.02754273292585189 
0.7750103993058362 0.13820101959922648 0.5275428852378201 
0.2750106384600378 0.8617996405955379 0.9724577492346221 
0.18276393258243342 0.9731270900882236 0.18089660787097975 
0.682763693428232 0.026873075605424113 0.319103721977526 
0.8172355891091634 0.026873322855982495 0.8191038742894944 
0.317235828263365 0.9731273373387821 0.680896760182948 
0.29814457739487504 0.5978016380640775 0.27668091041518744 
0.7981443382406735 0.40219852762957026 0.2233194194333184 
0.7018549442967217 0.4021987748801287 0.7233195717452866 
0.20185518345092335 0.5978018853146357 0.7766810627271556 
0.255454837813746 0.0952371798017673 0.5613113478968464 
0.7554545986595445 0.9047634803929973 0.9386892865755958 
0.7445446838778509 0.9047632331424388 0.43868913426362766 
0.24454492303205244 0.09523693255120892 0.061311195584878166 
0.2674181220916039 0.6109559461690172 0.9019127332110234 
0.7674178829374022 0.3890447140257474 0.5980879012614189 
0.732581399599993 0.38904446677518895 0.09808774894945067 
0.23258163875419458 0.6109556989184587 0.4019125808990551 
0.25317423890457613 0.7745177825511204 0.678903514315313 
0.7531739997503747 0.22548287764364408 0.8210971201571291 
0.7468252827870207 0.2254826303930857 0.3210969678451609 
0.24682552194122231 0.7745175353005619 0.17890336200334492 
0.8732427923204347 0.5485310448614177 0.7676384112251767 
0.3732430314746363 0.4514696153333468 0.7323622232472655 
0.1267567293711622 0.45146936808278837 0.23236207093529732 
0.6267564902169607 0.5485307976108592 0.26763825891320847 
0.8545010712847616 0.9840189053827975 0.2136222797736916 
0.35450131043896316 0.01598126031085026 0.2863780500748142 
0.14549845040683523 0.01598150756140868 0.7863782023867825 
0.6454982112526336 0.9840191526333559 0.7136224320856598 
