System
1.0
3.950634 0.0 0.0
0.0 3.950634 0.0
0.0 0.0 15.513552
Cs Ca Ta O 
1 2 3 10 
direct
0.5000005062483704 0.5000005062483704 0.5000000644597786 Cs
0.5000005062483704 0.5000005062483704 0.8518931098256685 Ca
0.5000005062483704 0.5000005062483704 0.14810701909388888 Ca
0.0 0.0 0.0 Ta
0.0 0.0 0.27543803550934504 Ta
0.0 0.0 0.7245620934102123 Ta
0.0 0.0 0.6086350784649548 O
0.0 0.0 0.39136505045460257 O
0.5000005062483704 0.0 0.7512480968505596 O
0.0 0.5000005062483704 0.7512480968505596 O
0.5000005062483704 0.0 0.24875203206899774 O
0.0 0.5000005062483704 0.24875203206899774 O
0.0 0.5000005062483704 0.0 O
0.5000005062483704 0.0 0.0 O
0.0 0.0 0.12695801636736914 O
0.0 0.0 0.8730421125521881 O
