System
1.0
4.970939 0.0 0.0
0.0 13.429805 0.0
0.0 0.0 19.042921
Ba Tl N O 
8 4 20 40 
direct
0.15701896841261415 0.7519692799628438 0.34640401819069766 Ba
0.9975917993152202 0.6325012354841472 0.599540031483617 Ba
0.8429808304181907 0.2519690938096621 0.6535960343222573 Ba
0.0024079995155845777 0.13250104933096546 0.400460021029338 Ba
0.9975917993152202 0.13250104933096546 0.9004600472858155 Ba
0.0024079995155845777 0.6325012354841472 0.09954000522713954 Ba
0.8429808304181907 0.7519692799628438 0.8464040444471753 Ba
0.15701896841261415 0.2519690938096621 0.15359600806577986 Ba
0.4667119061119226 0.8959963335850125 0.11419400599666439 Tl
0.5332878927188822 0.8959963335850125 0.614194032253142 Tl
0.5332878927188822 0.39599614743183076 0.8858060465162907 Tl
0.4667119061119226 0.39599614743183076 0.38580602025981314 Tl
0.5487718896039785 0.20531907644157024 0.2734370143589849 N
0.6151848762437286 0.9480183529531341 0.37673301978336304 N
0.011252997736243048 0.49585818461108877 0.9690430508873115 N
0.8876298214361874 0.9974043713398562 0.7466410392083253 N
0.45122790922682643 0.20531907644157024 0.7734370406154625 N
0.8876298214361874 0.49740418518667445 0.7533590395611073 N
0.9887468010945618 0.9958583707642705 0.030957001625643545 N
0.5487718896039785 0.705319262594752 0.22656301189749262 N
0.11236997739461753 0.49740418518667445 0.2533590133046298 N
0.3975319200288075 0.14431705373013745 0.5315460279130512 N
0.38481492258707617 0.9480183529531341 0.8767330460398406 N
0.3975319200288075 0.6443172398833192 0.9684540508563815 N
0.6024678788019974 0.14431705373013745 0.031546001656573674 N
0.11236997739461753 0.9974043713398562 0.24664101295184773 N
0.011252997736243048 0.9958583707642705 0.5309570278821211 N
0.6151848762437286 0.4480181667999523 0.12326700647311443 N
0.9887468010945618 0.49585818461108877 0.469043024630834 N
0.38481492258707617 0.4480181667999523 0.6232670327295919 N
0.6024678788019974 0.6443172398833192 0.4684540245999039 N
0.45122790922682643 0.705319262594752 0.72656303815397 N
0.02271599543024056 0.9197143424153749 0.0033010001733452645 O
0.17003696579379354 0.5495682046076634 0.3067610161089266 O
0.8313788327521557 0.9054613371088921 0.7409620389101041 O
0.9772838034005643 0.9197143424153749 0.5033010264298228 O
0.6730418646046825 0.8636313215353171 0.3509710184305243 O
0.47866290370774955 0.6859852553965806 0.1631500085674886 O
0.6730418646046825 0.3636311353821352 0.14902900782595316 O
0.08108598368799465 0.31124811587961104 0.43732002296496547 O
0.3703109255048342 0.95742535645542 0.394984020741777 O
0.3508499294197879 0.15211105663189325 0.019422001019906612 O
0.6491498694110169 0.15211105663189325 0.5194220272763842 O
0.9189138151428102 0.31124811587961104 0.9373200492214431 O
0.7994388391774997 0.7084672637667724 0.23553301236853383 O
0.6296888733259707 0.95742535645542 0.8949840469982546 O
0.3269579342261223 0.3636311353821352 0.6490290340824306 O
0.02271599543024056 0.41971415626219305 0.4966990260831322 O
0.47866290370774955 0.185985069243399 0.33685001768898887 O
0.5213368951230554 0.185985069243399 0.8368500439454664 O
0.3703109255048342 0.45742517030223834 0.10501600551470049 O
0.3286689338819218 0.16653706200278484 0.5934500311638132 O
0.6296888733259707 0.45742517030223834 0.605016031771178 O
0.16862096607864913 0.9054613371088921 0.2409620126536267 O
0.8299628330370112 0.049568018454481826 0.6932390364040285 O
0.671330864948883 0.16653706200278484 0.09345000490733565 O
0.6491498694110169 0.652111242785075 0.9805780514930484 O
0.5213368951230554 0.6859852553965806 0.6631500348239662 O
0.20056095965330503 0.20846707761359068 0.7644670401444212 O
0.8313788327521557 0.40546115095571045 0.7590380398593284 O
0.8299628330370112 0.5495682046076634 0.806761042365404 O
0.7994388391774997 0.20846707761359068 0.2644670138879437 O
0.3269579342261223 0.8636313215353171 0.8509710446870018 O
0.3286689338819218 0.6665372481559666 0.9065500476056194 O
0.16862096607864913 0.40546115095571045 0.25903801360285084 O
0.17003696579379354 0.049568018454481826 0.1932390101475509 O
0.08108598368799465 0.8112483020327927 0.06268000329151202 O
0.9189138151428102 0.8112483020327927 0.5626800295479895 O
0.20056095965330503 0.7084672637667724 0.7355330386250113 O
0.3508499294197879 0.652111242785075 0.4805780252365709 O
0.671330864948883 0.6665372481559666 0.4065500213491419 O
0.9772838034005643 0.41971415626219305 0.9966990523396098 O
