System
1.0
2.585219 -1.492577 -4.476056
-2.585219 -1.492577 -4.476056
0.0 2.985154 -4.476056
Cu O Re
2 6 2
direct
0.24999949743017577 0.24999949743017577 0.2500003349073459 
0.7499984922905273 0.7499984922905274 0.7500010047220377 
0.7499991202890394 0.3679992680520925 0.1320004946050305 
0.6319989102024021 0.8679988189142331 0.25000070700799204 
0.1319992873435384 0.7499990482923165 0.3680005473103075 
0.8679987023771647 0.2499989414283867 0.6320007923190761 
0.3679990795183011 0.13199917080646992 0.7500006326213915 
0.2499988694316637 0.6319987216686106 0.8680008450243532 
0.0 0.0 0.0 
0.49999899486035154 0.49999899486035154 0.5000006698146918 
