System
1.0
2.738445 0.0 0.0
0.0 2.738445 0.0
0.0 0.0 2.738445
Cr O 
1 1 
direct
0.0 0.0 0.0 Cr
0.5000009129285287 0.5000009129285287 0.5000009129285287 O
