System
1.0
0.0 -5.169018 -5.104624
0.0 5.169018 -5.104624
5.176569 0.0 5.104624
Cu K N O Pb 
1 2 6 12 1 
direct
0.0 0.0 0.0 Cu
0.7500000508763065 0.25000024433657564 0.49999990341094586 K
0.25000024433657564 0.7500000508763065 0.49999990341094586 K
0.1970001543699629 0.1970001543699629 0.0 N
0.798000276499616 0.20200050710425665 0.0 N
0.20200050710425665 0.798000276499616 0.0 N
0.8030006292339099 0.8030006292339099 0.0 N
0.20199996097802217 0.20199996097802217 0.4039999219560443 N
0.79800033423486 0.79800033423486 0.5959998848658474 N
0.3650001631103504 0.1550002443636634 0.0 O
0.1550002443636634 0.3650001631103504 0.0 O
0.8450005392402092 0.6350006204935222 0.0 O
0.6350006204935222 0.8450005392402092 0.0 O
0.8400002804950373 0.36900046273461073 0.20899995962577536 O
0.36900046273461073 0.8400002804950373 0.20899995962577536 O
0.6290002633430704 0.6290002633430704 0.4699999092062891 O
0.8410004294670914 0.8410004294670914 0.4699999092062891 O
0.15899986574579084 0.15899986574579084 0.5299998976156026 O
0.3710000318698118 0.3710000318698118 0.5299998976156026 O
0.6309998324782714 0.16000001471784484 0.7909998471961163 O
0.16000001471784484 0.6309998324782714 0.7909998471961163 O
0.5000003918019363 0.5000003918019363 0.0 Pb
