System
1.0
5.07950018 0.0 0.0
1.917080804 4.921230558 0.0
0.425424115 2.415116878 6.139075568
As Cu Mg O 
2 1 2 8 
direct
0.8670003981274839 0.8650000213311599 0.27399980219055625 As
0.13300072909606253 0.13499981195301503 0.7259994758771673 As
0.500000563611773 0.4999999166420874 0.4999996390338618 Cu
0.2330002178179722 0.27599998031603085 0.18199986860832568 Mg
0.7670009094055742 0.7239998529681441 0.8179994094593978 Mg
0.9040002242061943 0.6580000412760258 0.1189999140900591 O
0.6380001902615667 0.20899998252272356 0.14699989387595536 O
0.19100043402059902 0.8760000057722823 0.33399975887461975 O
0.2670005159434395 0.293999897766146 0.48399965058477823 O
0.7330006112801071 0.705999935518029 0.5159996274829454 O
0.8090006932029471 0.12399982751189254 0.665999519193104 O
0.3620009369619795 0.7909998507614513 0.8529993841917682 O
0.09600090301735206 0.34199979200814906 0.8809993639776645 O
