System
1.0
-2.627185944 2.627185944 5.65079033
2.627185944 -2.627185944 5.65079033
2.627185944 2.627185944 -5.65079033
Na Nd O W 
1 1 8 2 
direct
0.0 0.0 0.0 Na
0.7499992426723081 0.25000001459972865 0.4999992280725795 Nd
0.6499996560621117 0.255000265884774 0.08169987386705956 O
0.0014502613722096325 0.4249996074724916 0.09739984962853852 O
0.7449997927544786 0.8269996661583814 0.3949993901773378 O
0.09590039022147007 0.9989989959661627 0.4229993469494023 O
0.5749996498396014 0.6729994985418268 0.5769991091957567 O
0.43199947485416607 0.34999960145026293 0.6049990659678212 O
0.3269997579290831 0.9039988671248395 0.9029986058990787 O
0.17299959111365537 0.5679989812909928 0.917998582741256 O
0.5000000291994572 0.5000000291994572 4.225895688781459e-17 W
0.2500000145997287 0.7499992426723079 0.4999992280725795 W
