System
1.0
5.411705 -0.019136 -1.047023
-1.438999 6.280299 -2.434823
-0.006758 -0.098788 9.261513
Sr Ni P O 
2 4 4 16 
direct
0.24108349607533006 0.19950826761877788 0.4468581284677493 Sr
0.7589191956985245 0.8004915349101615 0.5531419498493473 Sr
0.5117630285573299 0.6037425028077545 0.8395381590743272 Ni
0.14184730358491346 0.8562449700606062 0.06119272296800851 Ni
0.8581543881873899 0.1437548324673663 0.9388063553486585 Ni
0.4882386632157119 0.3962592997202165 0.16046191924209896 Ni
0.8916713750391753 0.4287317427518206 0.7421471634073175 P
0.10833031673372596 0.5712690597763147 0.25785291490945994 P
0.3465817511992492 0.02646748093450132 0.8057263515132609 P
0.6534199405736518 0.9735333215936339 0.19427372680351657 P
0.6631610752457558 0.453641554324761 0.6255311081545909 O
0.3368406165266881 0.5463592482030474 0.3744679701617249 O
0.24677256188480773 0.009777364169865875 0.6355842820379943 O
0.7532301298891874 0.9902234383589092 0.36441579627875115 O
0.14649854897648668 0.48269024397352317 0.7018131497267697 O
0.8535041427975084 0.5173105585552519 0.2981869285899756 O
0.8429182873339793 0.2007287473825323 0.737114242726441 O
0.15708440444001587 0.7992720551462427 0.2628858355903044 O
0.5450420872282099 0.8803454667373801 0.8031350440552554 O
0.4549596045446912 0.11965533579075541 0.19686503426152213 O
0.11869922847695798 0.40420703940448266 0.0913718964057445 O
0.881302463295943 0.5957937631236526 0.9086281819110328 O
0.49198667517802114 0.7448412153796118 0.07040675512367614 O
0.1216856645130938 0.9536372054123159 0.8690370623057702 O
0.8783160272598073 0.04636359711581933 0.1309630160110071 O
0.5080160165959737 0.2551595871491633 0.9295933231930692 O
