System
1.0
3.665053 0.0 0.0
0.0 3.665053 0.0
0.0 0.0 3.665053
Co O Si 
1 3 1 
direct
0.5000004092713606 0.5000004092713606 0.5000004092713606 Co
0.5000004092713606 0.5000004092713606 0.0 O
0.5000004092713606 0.0 0.5000004092713606 O
0.0 0.5000004092713606 0.5000004092713606 O
0.0 0.0 0.0 Si
