System
1.0
-2.652978 -4.313748 0.054746
-2.652978 4.313748 0.054746
1.902809 0.0 -4.793899
Li Mn O W
3 1 6 1
direct
0.5059999188699698 0.49399992443357443 8.326041154478904e-07 
0.3510000480326923 0.6489999098698411 0.5000007296137098 
0.991999750863423 0.00813020701873998 0.5000007297219483 
0.8309997681890078 0.16900007511453646 8.326041154493498e-07 
0.9369998250987318 0.5949999836614671 0.21300123167559204 
0.20799999487805476 0.21599999116898497 0.22900030585453918 
0.5529999952153745 0.904999832016302 0.24300116388346318 
0.09500012588623162 0.446999962687159 0.7570002953439565 
0.7839999667335483 0.7919999630244787 0.7710011533728804 
0.4049999741796787 0.06260013292786767 0.7870002272187859 
0.17600007186910038 0.8239997714344438 8.326041154478904e-07 
