System
1.0
10.20289927 0.00466791 -3.53912054
-5.16475839 8.79917199 -3.53890272
-0.00260986 -0.00483093 10.79935595
Ca Ge O
16 16 48
direct
0.7496095823598611 0.6284617415949012 0.8721589525678843 
0.2503904579715578 0.3715381409417683 0.127840345265205 
0.5000000201657094 0.4999999412683347 0.4999996489165447 
0.0 0.0 0.0 
0.3770018983248296 0.6269938127041 0.7499981954100973 
0.12846358604226482 0.7563036173117111 0.8788519668636852 
0.6229981420065893 0.37300606983256945 0.2500011024229923 
0.3774506606847651 0.24961612096849425 0.6211536132505447 
0.12699414432348302 0.8769984115308028 0.24999815234725978 
0.4999998840856923 -1.7171396579326113e-07 0.4999996932305992 
0.6225493796466537 0.7503837615681751 0.37884568458254475 
0.2562930545294635 0.877444610905959 0.6278347178877923 
0.871536454289154 0.24369626522495838 0.12114733096940428 
0.7437069858019554 0.12255527163071046 0.3721645799452971 
0.873005896007936 0.12300147100586663 0.7500011454858296 
0.4999999040832134 -1.1876263591123435e-07 -9.535288293612742e-08 
0.883761688092955 0.7425526730939698 0.6117021770024064 
1.1608249602970164e-07 0.5000000600309706 0.49999974426942767 
0.24255147473585537 0.13085132100803556 0.8587848290241364 
0.22794171964062357 0.6162445871111756 0.35878567020709273 
0.1249966880864988 0.37500435562119727 0.749996435803063 
0.87500335224492 0.6249955269154722 0.2500028620300265 
0.7720583206907953 0.3837552954254939 0.6412136276259968 
0.6308443974967276 0.2720496975597819 0.8882902399843751 
0.3691556428346913 0.7279501849768876 0.11170905784871432 
0.37500746208207514 0.12500052269548242 0.2500074116938654 
0.6249925782493437 0.874999359841187 0.7499918861392239 
0.11623835223846385 0.2574472094426997 0.388297120830683 
1.3608001709658438e-07 0.5000001129823005 -4.431405441049583e-08 
0.7574485655955635 0.8691485615286337 0.14121446880895294 
-1.9997521060944174e-08 -5.2951329882026775e-08 0.49999978858348204 
0.5000000401632305 0.4999999942196646 -1.396669373394359e-07 
0.19972763045024888 0.9653242602084839 0.09896131451179893 
0.9939809144442595 0.1813190007317746 0.6056909682657476 
0.6336267092254525 0.8992198692581415 0.5989588862077985 
0.4653261559057775 0.8663696541629569 0.765600880753386 
0.6401635104026902 0.23756684779075882 0.03622118154642746 
0.10396167210471166 0.14017029138910708 0.9026294960891256 
0.07562875540061231 0.3882879150664381 0.8943034930227036 
0.030290968976798963 0.6955488150667876 0.6128999634237091 
0.5120065394160582 0.8790037063106474 0.2898753518839924 
0.7013365612858219 0.6039639607731285 0.46378598661868664 
0.96970907135462 0.3044510674698819 0.3870993344093804 
0.4879935009153606 0.12099617622602213 0.7101239459490971 
0.2986634790455969 0.39603592176354097 0.5362133112144029 
0.596017951200597 0.6814920166719665 0.9985749637058536 
0.31867030186193035 0.4243683441367113 0.8126635879955716 
0.11170900879610444 0.506009775015956 0.6873350332216671 
0.6813297384694885 0.5756315383999581 0.18733570983751777 
0.8960383682267071 0.8598295911475624 0.09736980174396391 
0.8002724098811701 0.03467562232818562 0.9010379833212905 
0.1814944476301611 0.6829271421557991 0.08547509871970747 
0.7375419794159532 0.20132618704502628 0.597366298916915 
0.0060181258873512715 0.8186808818051323 0.39430832956753253 
0.6210022073761875 0.4108691583016192 0.6330013175026775 
0.917385174951512 0.5302849235218972 0.8347432150939278 
0.3992358545146442 0.3002793448964725 0.26559685494700874 
0.8185055927012577 0.31707274038087047 0.9145241991133819 
0.2624580609154657 0.7986736954916432 0.40263299891617443 
0.9025558394716371 0.9039847578845933 0.5854821401975389 
0.08913422495997844 0.22216087677489987 0.21013595445942163 
0.09744420085978168 0.09601512465207618 0.41451715763555064 
0.5826394063460897 0.41738270197741306 0.8870852468062783 
0.3789978329552315 0.5891307242350503 0.3669979803304119 
0.72213681941768 0.012005897100949505 0.1330108349787842 
0.3598365299287287 0.7624330347459105 0.963778116286662 
0.9108658153714404 0.7778390057617697 0.7898633433736678 
0.6007641858167747 0.699720537640197 0.7344024428860807 
0.4039820891308218 0.318507865864703 0.0014243341272358247 
0.8170845928750446 0.40255736408447756 0.4985802376829669 
0.9243712849308066 0.6117119674702313 0.10569580481038585 
0.18291544745637414 0.5974425184521919 0.5014190601501226 
0.8044537119587776 0.9173581507617584 0.3347470937400458 
0.3663733311059663 0.10078001327852801 0.40104041162529086 
0.8882910315353144 0.49399010752071354 0.31266426461142227 
0.5346738844256412 0.1336302283737127 0.23439841707970344 
0.41736063398532924 0.5826171805592565 0.11291405102681107 
0.08261486537986687 0.4697149590146663 0.16525708273873874 
0.19554632837264144 0.08264173177491112 0.6652522040930436 
0.27786322091373905 0.9879939854357201 0.8669884628543053 
