System
1.0
8.083535 0.008544 2.671465
3.489912 10.055219 1.156946
-0.038035 0.008664 13.759666
Cs Bi Mo O
10 2 8 32
direct
0.43590498090955226 0.5472952679220252 0.37410387172337567 
0.8312525238586926 0.43989733362744 0.11682220461182506 
0.17337341371300669 0.5507713641583264 0.8796215362361363 
0.1962712867049744 0.946893134202442 0.37759861933684563 
0.05380502570419672 0.04925606470335232 0.12112795958934505 
0.565168159749761 0.747190498895486 0.8753616607236782 
0.9494959160612136 0.9417306352573134 0.8821887776895931 
0.8068786563450231 0.04811956530069853 0.6257251165038756 
0.4387077817899165 0.24728020025162345 0.12620507637235448 
0.5739539542344343 0.4472214320877403 0.6236558698093027 
0.8093117505346754 0.7478714019866725 0.38759297863772574 
0.19721518854116035 0.24642229794409462 0.6132467600968927 
0.3508461460373346 0.14241846654503904 0.857373769264802 
0.4038382064303298 0.8596243225247135 0.6215126489760775 
0.02707825137145283 0.360903125569533 0.3787687354511808 
0.20553708699357912 0.6418650749224958 0.14307282331346258 
0.9824446849920608 0.6336305751540539 0.6211260050370123 
0.6035647315786474 0.13402037765020883 0.3789020905756823 
0.7955578550113416 0.35038862236662127 0.8560519141922983 
0.6516317964944115 0.8501792326172197 0.14516196739213566 
0.1372570927010046 0.5123720510340769 0.11898584404873801 
0.7985648686108986 0.240809677025357 0.9630689087935426 
0.5758800913786537 0.8989603953055855 0.642148710276539 
0.22169809801116594 0.3988021895089176 0.35422482668892125 
0.4888640597965505 0.7702963171178406 0.5005117699402981 
0.05754828376765305 0.7335040549031425 0.2637376712986485 
0.9922015200606554 0.27389356707625556 0.5011571807361578 
0.435781841343124 0.09071130625910628 0.356505033399422 
0.6730266635484414 0.2412813550667299 0.2794221286619104 
0.8422456570884587 0.5176314370794382 0.3853210733896532 
0.22473410108435732 0.015871332532054014 0.6150468506673651 
0.8611138521107856 0.48120764528673954 0.8807618914370496 
0.42306089885067794 0.5698111723354422 0.1522829489640288 
0.2585281925403524 0.012690452709667661 0.8825557582449071 
0.4244199997307871 0.9194591390084159 0.15451683038033653 
0.20371707243743312 0.751448020715967 0.036005829304624114 
0.7900108356385733 0.5927325122711601 0.6453889159851842 
0.24062831213374317 0.2533854538361971 0.9634496349390214 
0.7625646298413289 0.7397212454347749 0.038771102020275276 
0.6786708033208065 0.7608013004975615 0.2664169609178814 
0.9559377806044597 0.7401375933295711 0.7199599156197615 
0.5780580422026903 0.4200075250000246 0.8463257895891706 
0.7420847518054763 0.9810162456214557 0.12003397711391332 
0.33154427809050674 0.7551343442400607 0.7223366080327361 
0.32526713790181694 0.23169439914064358 0.7358287765976979 
0.5777229425434139 0.0707405604116133 0.8484029067686767 
0.1687302788023075 0.4783342643116852 0.6151556670767093 
0.016411416944685498 0.7206441332162841 0.49856555938182906 
0.78604883429784 0.9800233682168982 0.3839908903205639 
0.051344157836110106 0.2547671066472744 0.28039282347262556 
0.9453916571518679 0.2599556430188052 0.7354330666711095 
0.5153648806741671 0.22113838254834664 0.5012479682743759 
