System
1.0
5.92815 0.0 0.0
-1.127867 7.335672 0.0
-0.00979 -1.578847 7.517457
Sr Hg As O 
2 2 4 14 
direct
0.6890552093733452 0.2731383772098548 0.9370796260385821 Sr
0.3109454093653403 0.7268622184994411 0.06291997489045502 Sr
0.3113314975909764 0.826985417746882 0.5951587624893249 Hg
0.6886691211477091 0.17301517796241378 0.40484083843971236 Hg
0.8148774822559136 0.77531747534424 0.8170436739414643 As
0.18512313648277187 0.2246831203650559 0.18295592698757293 As
0.789636395595021 0.667568304936952 0.38050984814950795 As
0.21036422314366454 0.3324322907723439 0.6194897527795292 As
0.9400751648594451 0.2246042713436579 0.6503487404645983 O
0.05992545387924038 0.7753963243656378 0.3496508604644388 O
0.7636604104330349 0.6307864827764865 0.9620196160857523 O
0.23634020830565067 0.36921411293280915 0.03797998484328483 O
0.7863813830895907 0.6210963635823278 0.6012537600569873 O
0.21361923564909474 0.3789042321269681 0.39874584087204984 O
0.6082925610261415 0.915622516198402 0.8250956707281449 O
0.39170805771254413 0.08437807951089385 0.17490393020089232 O
0.5833634725454413 0.8070833382488486 0.36588285398671894 O
0.4166371461932441 0.19291725746044727 0.6341167469423182 O
0.2820703526508875 0.5514713892678917 0.7395157048806378 O
0.717930266087798 0.44852920644140415 0.2604838960483993 O
0.0893075493141327 0.8928725152075803 0.8412276642903321 O
0.9106930694245527 0.10712808050171552 0.1587719366387051 O
