System
1.0
12.013367 0.0 0.0
0.0 6.713663 0.0
0.0 1.094534 9.542246
Na Al As O
12 4 8 32
direct
0.8467287885533368 0.7675987619491479 0.6308117355709608 
0.34672891341422096 0.23240268111191434 0.8691876356465195 
0.15327096172489482 0.2324023490416114 0.36918784524069276 
0.6532708368640108 0.7675984298788449 0.13081194516513403 
0.9186637705896015 0.09724018547352851 0.21384291035950645 
0.41866389545048555 0.9027605934469279 0.28615688004632034 
0.08133597968863025 0.902760925517231 0.7861566704521471 
0.5813358548277461 0.0972405175438315 0.7138427007653332 
0.3951879013129538 0.37600251533020956 0.5229517807846158 
0.8951877764520696 0.623998927730853 0.9770475904328644 
0.6048118489652778 0.6239985956605498 0.4770478000270377 
0.10481197382616202 0.3760021832599066 0.02295199037878907 
0.1463919634427309 0.7193176126598729 0.438510816181299 
0.6463918385818467 0.28068316626058337 0.061488974224527766 
0.8536077868355008 0.28068349833088635 0.5614887646303545 
0.3536079116963849 0.719317944730176 0.9385106065871257 
0.6739168317082551 0.136219311777153 0.37779284163357696 
0.1739169565691392 0.8637814671433033 0.12220694877224975 
0.3260829185699766 0.8637817992136063 0.6222067391780765 
0.8260827937090924 0.13621964384745597 0.8777926320394038 
0.4160828960950174 0.3955852948899378 0.17785792544399906 
0.9160827712341333 0.6044154840305187 0.3221418649618277 
0.5839168541832143 0.6044158161008216 0.8221416553676545 
0.08391697904409837 0.3955856269602408 0.6778577158498257 
0.5965108510382183 0.2718734400169602 0.4796127989518195 
0.0965109758991024 0.7281273389034961 0.02038699145400718 
0.40348889924001335 0.728127670973799 0.520386781859834 
0.9034887743791292 0.2718737720872632 0.9796125893576463 
0.8029617994829095 0.08709334762070031 0.46481580515454957 
0.30296192434379365 0.9129074312997562 0.035183985251277215 
0.1970379507953222 0.9129077633700591 0.535183775657104 
0.6970378259344381 0.0870936796910033 0.9648155955603762 
0.4892908778133862 0.5911644148851138 0.2269449048673007 
0.9892907529525021 0.40883636403534246 0.273054885538526 
0.5107088724648454 0.40883669610564544 0.7730546759443528 
0.010708997325729582 0.5911647469554169 0.7269446952731274 
0.0035329991177329924 0.7687666105794557 0.40210783144101236 
0.5035328742568488 0.23123416834100052 0.0978919589648144 
0.9964667511604985 0.23123450041130356 0.597891749370641 
0.49646687602138284 0.7687669426497586 0.9021076218468392 
0.6177338457383732 0.9209466342862546 0.33541285939877913 
0.11773397059925732 0.07905414463420195 0.16458693100704763 
0.3822659045398585 0.07905447670450493 0.6645867214128744 
0.8822657796789742 0.9209469663565576 0.8354126498046058 
0.3282469180295787 0.47931423707114035 0.03446498555267364 
0.8282467931686944 0.520686541849316 0.46553480485315313 
0.671752832248653 0.5206868739196189 0.9655345952589799 
0.1717529571095371 0.47931456914144344 0.5344647759585004 
0.3443289140135532 0.25284931428663204 0.30309987294401214 
0.8443287891526691 0.7471514646338242 0.19689991746181457 
0.6556708362646784 0.7471517967041272 0.6968997078676413 
0.1556709611255626 0.2528496463569351 0.803099663349839 
0.7192308203923627 0.27590227117967353 0.22268290665388146 
0.219230945253247 0.7240985077407828 0.2773168837519453 
0.2807689298858688 0.7240988398110858 0.7773166741577722 
0.7807688050249847 0.27590260324997656 0.7226826970597081 
