System
1.0
9.708665 0.0 0.0
0.0 3.445041 0.0
0.0 0.0 3.445041
Ca Ir O
2 2 5
direct
0.26500013647609455 0.5000001451361957 0.5000001451361957 
0.7350003785280358 0.5000001451361957 0.5000001451361957 
0.0 0.0 0.0 
0.5000002575020651 0.0 0.0 
0.11800006077048737 0.5000001451361957 0.0 
0.882000454233643 0.5000001451361957 0.0 
0.11800006077048737 0.0 0.5000001451361957 
0.882000454233643 0.0 0.5000001451361957 
0.5000002575020651 0.5000001451361957 0.5000001451361957 
