System
1.0
10.713356 0.0 0.0
0.0 12.464902 0.0
0.0 0.0 13.241536
Li P N O 
16 24 8 72 
direct
0.08259696916112218 0.6674921070994552 0.18117494527071623 Li
0.9174026574732855 0.1674920268741827 0.31882490368945 Li
0.4174028441560817 0.3325080533510899 0.6811747942308825 Li
0.582596782478326 0.8325081335763623 0.8188247526496162 Li
0.9174026574732855 0.3325080533510899 0.8188247526496162 Li
0.08259696916112218 0.8325081335763623 0.6811747942308825 Li
0.582596782478326 0.6674921070994552 0.31882490368945 Li
0.4174028441560817 0.1674920268741827 0.18117494527071623 Li
0.4066538481693885 0.8326851336047622 0.3230749024056114 Li
0.5933457784650193 0.33268505337948956 0.17692494655455482 Li
0.09334596514781543 0.16731502684578295 0.8230747513657776 Li
0.9066536614865923 0.6673151070710555 0.6769247955147211 Li
0.5933457784650193 0.16731502684578295 0.6769247955147211 Li
0.4066538481693885 0.6673151070710555 0.8230747513657776 Li
0.9066536614865923 0.8326851336047622 0.17692494655455482 Li
0.09334596514781543 0.33268505337948956 0.3230749024056114 Li
0.3118208835767677 0.411335065998925 0.19517494104160088 P
0.68817874305764 0.9113351462241974 0.30482490791856537 P
0.18817892974043623 0.5886650944516201 0.6951747900017672 P
0.8118206968939715 0.08866501422634757 0.8048247568787316 P
0.68817874305764 0.5886650944516201 0.8048247568787316 P
0.3118208835767677 0.08866501422634757 0.6951747900017672 P
0.8118206968939715 0.411335065998925 0.30482490791856537 P
0.18817892974043623 0.9113351462241974 0.19517494104160088 P
0.2554029046413076 0.5475970878622372 0.014776995536168753 P
0.7445967219931001 0.047597007636964596 0.4852228534239975 P
0.24459690867589626 0.452403072588308 0.514776844496335 P
0.7554027179585117 0.9524031528135805 0.9852227023841637 P
0.7445967219931001 0.452403072588308 0.9852227023841637 P
0.2554029046413076 0.9524031528135805 0.514776844496335 P
0.7554027179585117 0.5475970878622372 0.4852228534239975 P
0.24459690867589626 0.047597007636964596 0.014776995536168753 P
0.29713188906113486 0.5923690950459289 0.3406088971089465 P
0.7028677375732729 0.0923690148206564 0.15939095185121974 P
0.202867924256069 0.4076310654046162 0.8406087460691128 P
0.7971317023783387 0.9076311456298886 0.6593908008113859 P
0.7028677375732729 0.4076310654046162 0.6593908008113859 P
0.29713188906113486 0.9076311456298886 0.8406087460691128 P
0.7971317023783387 0.5923690950459289 0.15939095185121974 P
0.202867924256069 0.0923690148206564 0.3406088971089465 P
0.9952236284176018 0.7582611216633907 0.42842887058031015 N
0.004775998216805932 0.25826104143811823 0.07157097837985611 N
0.5047758115340099 0.24173903878715433 0.9284287195404763 N
0.495223815100398 0.7417391190124268 0.5715708273400224 N
0.004775998216805932 0.24173903878715433 0.5715708273400224 N
0.9952236284176018 0.7417391190124268 0.9284287195404763 N
0.495223815100398 0.7582611216633907 0.07157097837985611 N
0.5047758115340099 0.25826104143811823 0.42842887058031015 N
0.08913796671893784 0.8271571327177916 0.18356594454844374 O
0.9108616599154699 0.3271570524925189 0.3164339044117225 O
0.4108618465982661 0.17284302773275356 0.68356579350861 O
0.5891377800361418 0.672843107958026 0.8164337533718887 O
0.9108616599154699 0.17284302773275356 0.8164337533718887 O
0.08913796671893784 0.672843107958026 0.68356579350861 O
0.5891377800361418 0.8271571327177916 0.3164339044117225 O
0.4108618465982661 0.3271570524925189 0.18356594454844374 O
0.3217618798651403 0.8783311409286877 0.19949893973540841 O
0.6782377467692675 0.37833106070341516 0.30050090922475786 O
0.17823793345206357 0.12166901952185737 0.6994987886955746 O
0.8217616931823443 0.6216690997471299 0.8005007581849242 O
0.6782377467692675 0.12166901952185737 0.8005007581849242 O
0.3217618798651403 0.6216690997471299 0.6994987886955746 O
0.8217616931823443 0.8783311409286877 0.30050090922475786 O
0.17823793345206357 0.37833106070341516 0.19949893973540841 O
0.16473793849249907 0.0008010001285208866 0.10761296749230073 O
0.8352616881419086 0.5008010803537934 0.3923868814678655 O
0.3352618748247048 0.999199160322024 0.6076128164524669 O
0.664737751809703 0.4991990800967517 0.8923867304280318 O
0.8352616881419086 0.999199160322024 0.8923867304280318 O
0.16473793849249907 0.4991990800967517 0.6076128164524669 O
0.664737751809703 0.0008010001285208866 0.3923868814678655 O
0.3352618748247048 0.5008010803537934 0.10761296749230073 O
0.15084294368041398 0.9799791572381649 0.29461891100159043 O
0.8491566829539939 0.4799790770128921 0.20538093795857582 O
0.3491568696367899 0.020021003212380362 0.7946187599617567 O
0.6508427569976178 0.5200210834376529 0.7053807869187421 O
0.8491566829539939 0.020021003212380362 0.7053807869187421 O
0.15084294368041398 0.5200210834376529 0.7946187599617567 O
0.6508427569976178 0.9799791572381649 0.20538093795857582 O
0.3491568696367899 0.4799790770128921 0.29461891100159043 O
0.34247287213236555 0.8900801428138212 0.44867786446349894 O
0.6575267545020422 0.3900800625885486 0.051321984496667306 O
0.15752694118483837 0.10992001763672392 0.9486777134236652 O
0.8424726854495694 0.6099200978619964 0.5513218334568335 O
0.6575267545020422 0.10992001763672392 0.5513218334568335 O
0.34247287213236555 0.6099200978619964 0.9486777134236652 O
0.8424726854495694 0.8900801428138212 0.051321984496667306 O
0.15752694118483837 0.3900800625885486 0.44867786446349894 O
0.14257894676590724 0.6059180972198733 0.05439798356747025 O
0.8574206798685006 0.10591801699460084 0.445601865392696 O
0.3574208665512966 0.3940820632306717 0.5543978325276364 O
0.6425787600831111 0.8940821434559443 0.9456017143528623 O
0.8574206798685006 0.3940820632306717 0.9456017143528623 O
0.14257894676590724 0.8940821434559443 0.5543978325276364 O
0.6425787600831111 0.6059180972198733 0.445601865392696 O
0.3574208665512966 0.10591801699460084 0.05439798356747025 O
0.288985892102571 0.5618130901432021 0.45949786119499697 O
0.7110137345318368 0.06181300991792954 0.04050198776516931 O
0.21101392121463292 0.43818707030734294 0.9594977101551632 O
0.7889857054197748 0.9381871505326156 0.5405018367253356 O
0.7110137345318368 0.43818707030734294 0.5405018367253356 O
0.288985892102571 0.9381871505326156 0.9594977101551632 O
0.7889857054197748 0.5618130901432021 0.04050198776516931 O
0.21101392121463292 0.06181300991792954 0.45949786119499697 O
0.16989393656742607 0.618269099201598 0.3014339089429175 O
0.8301056900669816 0.11826901897632551 0.19856594001724873 O
0.3301058767497778 0.381731061248947 0.8014337579030837 O
0.66989374988463 0.8817311414742195 0.6985657889774151 O
0.8301056900669816 0.381731061248947 0.6985657889774151 O
0.16989393656742607 0.8817311414742195 0.8014337579030837 O
0.66989374988463 0.618269099201598 0.19856594001724873 O
0.3301058767497778 0.11826901897632551 0.3014339089429175 O
0.39824785130789964 0.6743501081998251 0.32931690052003015 O
0.6017517753265081 0.17435002797455254 0.1706829484401361 O
0.10175196200930425 0.32565005225072 0.8293167494801963 O
0.8982476646251035 0.8256501324759925 0.6706827974003023 O
0.6017517753265081 0.32565005225072 0.6706827974003023 O
0.39824785130789964 0.8256501324759925 0.8293167494801963 O
0.8982476646251035 0.6743501081998251 0.1706829484401361 O
0.10175196200930425 0.17435002797455254 0.32931690052003015 O
