System
1.0
3.719040474 2.147189019 2.930931281
-3.719040474 2.147189019 2.930931281
0.0 -4.294378037 2.930931281
Cs Fe N O
1 1 3 6
direct
0.9970004358288388 0.9970004358288388 0.9970004355966752 
0.5330002329957584 0.5330002329957583 0.5330002328716428 
0.4910000963812886 0.5140000993126903 0.09380028455044852 
0.5140002153911499 0.09380016183571625 0.49100010301756125 
0.0938001685572785 0.4910002191813106 0.5140000925058382 
0.9950002228281318 0.49800015948436577 0.29300039828137525 
0.6960002427436075 0.9340002730772421 0.4850004085666315 
0.2930001932662329 0.9950002827377094 0.49800030458993055 
0.9340003347402707 0.4850002775142122 0.6960003121329978 
0.4850003470677707 0.6960003739601945 0.9340002033595157 
0.49800036463813874 0.29300033851042834 0.9950000774453057 
