System
1.0
2.581788 0.0 0.0
0.0 6.037611 0.0
0.0 0.0 4.493617
H Mn O
2 2 4
direct
0.0 0.6570001088178933 0.0 
0.49999961267182846 0.5930000982176722 0.49999966619340314 
0.0 0.9820001626471402 0.0 
0.49999961267182846 0.2680000443884253 0.49999966619340314 
0.49999961267182846 0.2050000339538327 0.0 
0.49999961267182846 0.7250001200806279 0.0 
0.0 0.044600007387028975 0.49999966619340314 
0.0 0.5250000869549375 0.49999966619340314 
