System
1.0
7.730682 0.0 0.0
0.0 3.806816 0.0
0.0 0.0 3.806816
Co O Sr
2 5 2
direct
0.25300006545349174 0.49999947462711664 0.49999947462711664 
0.7470001932559619 0.49999947462711664 0.49999947462711664 
0.2200000569160798 0.49999947462711664 0.0 
0.7800002017933738 0.49999947462711664 0.0 
0.2200000569160798 0.0 0.49999947462711664 
0.7800002017933738 0.0 0.49999947462711664 
0.5000001293547268 0.49999947462711664 0.49999947462711664 
0.0 0.0 0.0 
0.5000001293547268 0.0 0.0 
