System
1.0
6.101207662 -3.841333736 0.0
6.101207662 3.841333736 0.0
-2.19459697 0.0 5.719588966
Ge Hg O 
2 6 7 
direct
0.3479999527487914 0.34799995274879136 0.3989999278679066 Ge
0.6519998798463339 0.6519998798463338 0.6009998913499044 Ge
0.8720000331492676 0.35499953032550585 0.07799998589898925 Hg
0.35499953032550596 0.8720000331492673 0.07799998589898925 Hg
0.8869997559134501 0.88699975591345 0.4439999197327081 Hg
0.1130000766816752 0.11300007668167517 0.555999899485103 Hg
0.6450003022696194 0.12799979944585768 0.9219998333188217 Hg
0.1279997994458578 0.6450003022696192 0.9219998333188217 Hg
0.4930001196690298 0.11099974814354249 0.22999995842009652 O
0.11099974814354249 0.4930001196690297 0.22999995842009652 O
0.6969998097317521 0.696999809731752 0.3559999356415407 O
0.4999999162975627 0.4999999162975626 0.4999999096089055 O
0.30300002286337324 0.3030000228633732 0.6439998835762702 O
0.8890000844515829 0.5069997129260954 0.7699998607977144 O
0.5069997129260955 0.8890000844515825 0.7699998607977144 O
