System
1.0
4.636951 -4.638488 0.0
-4.636951 0.0 -4.638488
4.636951 4.638488 0.0
Ce Mo O 
2 4 8 
direct
0.0 0.0 0.0 Ce
0.7499998383273498 0.49999978441259973 0.25000005391474994 Ce
0.3749997574552248 0.7499996766188997 0.12499986524892487 Mo
0.375000080872125 0.24999989220629987 0.6249999730784248 Mo
0.3749999191636749 0.7499996766188997 0.6249998113699747 Mo
0.8750000269931749 0.24999989220629987 0.6250001347868751 Mo
0.17999985317731926 0.786999660665432 0.3929997613370868 O
0.6059999929137544 0.2129999081597675 0.39300008475398696 O
0.6069998074881127 0.786999660665432 0.3939998993283453 O
0.143000030839237 0.28699987625283224 0.42999990709206926 O
0.607000130905013 0.2129999081597675 0.8200000390647806 O
0.14300003083923699 0.7129996925723673 0.8559997234116044 O
0.5699999851500305 0.7129996925723673 0.8569998614028627 O
0.14400016883049552 0.28699987625283224 0.8569998614028629 O
