System
1.0
5.466051 -7.726681 0.0
5.466051 7.726681 0.0
-5.456201 0.0 7.73364
K Nb S O 
7 1 6 24 
direct
0.5000000457368666 0.5000000457368666 0.5 K
0.8374890777802912 0.33518601277138693 0.677715 K
0.33518599388024917 0.6777150382109318 0.837489 K
0.6777150976015411 0.8374891182797626 0.335186 K
0.16251101369344217 0.6648140787023464 0.322285 K
0.6648140975934842 0.3222850532628013 0.162511 K
0.3222849938721922 0.1625109731939708 0.664814 K
0.0 0.0 0.0 Nb
0.968153114654805 0.744746085741093 0.617525 S
0.7447460442840235 0.6175250278188663 0.968153 S
0.6175250542337549 0.968153099612624 0.744746 S
0.0318469768189282 0.2552540057326402 0.382475 S
0.2552540471897099 0.38247506365486705 0.031847 S
0.38247503723997833 0.031846991861109286 0.255254 S
0.4277930759459947 0.9097701383242737 0.166351 O
0.909770107412255 0.1663510111977101 0.427793 O
0.16635095421037843 0.4277929880466445 0.90977 O
0.5722070155277386 0.09022995314945964 0.8336489999999999 O
0.09022998406147836 0.8336490802760232 0.572207 O
0.8336491372633548 0.5722071034270888 0.09023 O
0.31419804241888405 0.984962129230296 0.360917 O
0.9849621347541926 0.36091705398923263 0.314198 O
0.36091697468036416 0.3141979686339121 0.984962 O
0.6858020490548493 0.015037962243437286 0.6390829999999998 O
0.015037956719540835 0.6390830374845007 0.685802 O
0.6390831167933689 0.6858021228398211 0.015037999999999998 O
0.7669000643215456 0.9777200916062267 0.892311 O
0.9777201064343997 0.8923110953806221 0.7669 O
0.6474510418230393 0.47537401955254277 0.787343 O
0.7873430968142587 0.6474510787091995 0.47537399999999996 O
0.4753740360929001 0.7873430764684559 0.647451 O
0.352549049650694 0.5246260719211906 0.212657 O
0.2126569946594744 0.35254901276453376 0.524626 O
0.5246260553808333 0.21265701500527734 0.352549 O
0.1076890210197554 0.23310003725065923 0.02228 O
0.022279985039333774 0.10768899609311106 0.2331 O
0.2331000271521877 0.022279999867506575 0.107689 O
0.8923110704539778 0.7669000542230741 0.9777199999999999 O
