System
1.0
3.20535534 -0.01296672 4.82404363
1.44694452 2.86021434 4.82404363
-0.021186 -0.01296672 5.79182686
Na Tl O 
1 1 2 
direct
0.49999973790508434 0.5000018996937678 0.4999989917103286 Na
0.0 0.0 0.0 Tl
0.7424549608124552 0.7424581708756027 0.7424538527798781 O
0.25754451499771336 0.25754562851193313 0.25754413064077897 O
