System
1.0
-2.16602328 2.16602328 4.642401
2.16602328 -2.16602328 4.642401
2.16602328 2.16602328 -4.642401
Li In O
2 2 4
direct
0.0 0.0 0.0 
0.750000811000513 0.2500000538514561 0.5000007571490568 
0.2500000538514561 0.7500008110005129 0.5000007571490568 
0.5000001077029123 0.5000001077029123 0.0 
0.2646702070114919 0.2646702070114919 -3.4314499430658e-34 
0.014670153160035743 0.5146709103090924 0.5000007571490568 
0.7353300083943326 0.7353300083943326 -1.0341769662040603e-33 
0.4853299545428765 0.9853307116919331 0.5000007571490568 
