System
1.0
6.29037237 2e-08 0.0
-3.14518467 5.78295723 -2.81468997
0.0 -0.00704251 7.8907008
Rb W O
4 2 8
direct
0.8450093172726156 0.6900190223493285 0.2532121321811023 
0.154989862172898 0.30997906781530604 0.746787648458824 
0.48935175834060357 0.9787036111260655 0.7638233261952022 
0.5106474211049099 0.021294479038568976 0.23617645444472396 
0.17540669310135895 0.35081178491635817 0.2247931595665366 
0.8245924863441545 0.6491863052482764 0.7752066210733897 
0.3746520050516428 0.2846278204086241 0.07946293864360349 
0.09002329177580792 0.7153702679038233 0.9205368413356294 
0.6253471743938708 0.7153702697560106 0.9205368419963228 
0.9099758876697055 0.28462782226081135 0.07946293930429682 
0.6719641410689509 0.34392728645712367 0.6244169499652331 
0.328036038374977 0.6560728037065561 0.3755828306743601 
0.0919311068074794 0.18386142734082342 0.3567650103108141 
0.908068072638034 0.816136662823811 0.6432347703291121 
