System
1.0
6.709031 3.649638 0.0
-6.709031 3.649638 0.0
0.0 3.648363 12.359666
K Cd B O
4 4 12 24
direct
0.16654280401317192 0.6825228809214582 0.13113895755906108 
0.31747685745894033 0.8334569343672266 0.36886088062432093 
0.83345722074688 0.31747714383859377 0.8688607188077029 
0.6825231673011115 0.1665430903928253 0.631138795742443 
0.5226978348255572 0.3757728129259681 0.12231396041512436 
0.6242269254544305 0.4773019035548415 0.3776858777682577 
0.4773021899344948 0.6242272118340837 0.8776857159516396 
0.37577309930562147 0.5226981212052104 0.6223137985985064 
0.6851979103408844 0.07192381893065079 0.12585895926784454 
0.9280759194497478 0.314801828039514 0.37414087891553743 
0.3148021144191675 0.928076205829401 0.8741407170989194 
0.07192410530995587 0.6851991967203385 0.6258587974512265 
0.8149056345762014 0.8402576383549889 0.15709894915754224 
0.1597421000254097 0.18509410380419736 0.34290088902583976 
0.18509439018385065 0.159742386405063 0.8429007272092218 
0.840257924734642 0.8149059209558545 0.6570987873409242 
0.07556495463029184 0.2322709779877668 0.08844197137722935 
0.7677287603926317 0.9244347837501067 0.41155786680615264 
0.9244350701297601 0.767729046772285 0.9115577049895347 
0.2322712643674201 0.07556524100994526 0.5884418095606113 
0.27883683654431446 0.40923185598005996 0.06074598034057545 
0.5907678824003386 0.7211629018360842 0.4392538578428065 
0.7211631882157375 0.5907681687799918 0.9392536960261887 
0.4092321423597133 0.2788371229239678 0.5607458185239574 
0.6480306612050915 0.8699136942773834 0.16351994707949324 
0.13008604410301516 0.35196907717530723 0.3364798911038887 
0.3519693635549605 0.13008633048266843 0.8364797292872708 
0.869913980657037 0.6480309475847448 0.6635197852628753 
0.9024707825374712 0.2518146855553442 0.08785597156687841 
0.7481850528250543 0.09752895584292733 0.4121438666165036 
0.09752924222258076 0.7481853392047079 0.9121437047998855 
0.2518149719349977 0.9024710689171247 0.5878558097502604 
0.7757387265446738 0.6439017068939941 0.18454594027478083 
0.35609803148640456 0.2242610118357247 0.3154538979086012 
0.22426129821537802 0.3560983178660579 0.8154537360919831 
0.6439019932736474 0.7757390129243271 0.6845457784581629 
0.027694054998900833 0.02542905466129615 0.12114296079409889 
0.9745706837191024 0.9723056833814978 0.3788568773892831 
0.9723059697611512 0.9745709700987558 0.8788567155726651 
0.025429341040949523 0.027694341378554206 0.6211427989774809 
0.5197309384800246 0.086555873914059 0.12626495913644945 
0.9134438644663396 0.480268799900374 0.37373487904693253 
0.4802690862800275 0.9134441508459931 0.8737347172303146 
0.08655616029371234 0.519731224859678 0.6262647973198314 
