System
1.0
2.86257576 1.652708886 9.494179401
-2.86257576 1.652708886 9.494179401
0.0 -3.305417771 9.494179401
Fe K O Te 
2 4 12 2 
direct
0.4029999746148532 0.4029999746148532 0.40299997449293223 Fe
0.5969999623947081 0.5969999623947081 0.5969999622140956 Fe
0.12699999200021428 0.12699999200021428 0.12699999196179254 K
0.2799999823626772 0.2799999823626772 0.2799999822779678 K
0.719999954646884 0.719999954646884 0.71999995442906 K
0.872999945009347 0.872999945009347 0.8729999447452353 K
0.6059998703431912 0.6059998703431912 0.15700017294165064 O
0.7199995321307918 0.19900030382625536 0.19900009350689818 O
0.19900030382625536 0.7199995321307918 0.19900009350689818 O
0.8009998433899189 0.8009998433899189 0.28000019448236707 O
0.8429995827729077 0.39400024782331683 0.3940000665018927 O
0.39400024782331683 0.8429995827729078 0.3940000665018927 O
0.6059996891862445 0.1570003542366536 0.6059998702051351 O
0.15700035423665365 0.6059996891862445 0.6059998702051352 O
0.19900009361964233 0.19900009361964233 0.7199997422246607 O
0.2800004048787694 0.8009996331833059 0.8009998432001296 O
0.8009996331833059 0.2800004048787694 0.8009998432001297 O
0.3940000666663701 0.3940000666663701 0.8429997637653771 O
0.0 0.0 0.0 Te
0.4999999685047806 0.4999999685047806 0.4999999683535139 Te
