System
1.0
-4.70460392 4.70460392 2.29325153
4.70460392 -4.70460392 2.29325153
4.70460392 4.70460392 -2.29325153
Na Ag O
4 4 4
direct
0.750169570494354 0.90930075308665 0.15913118259229606 
0.7501696535201773 0.5910384809278895 0.8408696506347584 
0.0906999971145803 0.24983117970687638 0.8408696506347584 
0.40896226927334073 0.24983109668105302 0.15913118259229606 
0.40826442866380636 0.591736321537424 0.5000004166135272 
0.09173590492389672 0.9082648452773335 0.5000004166135272 
0.40826442866388946 0.9082648452774165 0.8165299403542702 
0.09173590492381362 0.5917363215373409 0.18347089287278429 
0.2502928600148971 0.060300291708080954 0.81000825492023 
0.25029277698907376 0.44028535529589824 0.18999257830682448 
0.9397004584931493 0.7497078901863332 0.18999257830682448 
0.5597153949053322 0.7497079732121565 0.8100082549202299 
