System
1.0
-4.32976 -4.32976 0.0
-4.32976 0.0 -4.32976
0.0 -4.32976 -4.32976
Ba Sm Nb O 
2 1 1 6 
direct
0.25 0.25 0.25 Ba
0.75 0.75 0.75 Ba
0.5 0.5 0.5 Sm
0.0 0.0 0.0 Nb
0.233885 0.766115 0.233885 O
0.233885 0.766115 0.766115 O
0.766115 0.233885 0.233885 O
0.7661150000000001 0.766115 0.233885 O
0.7661150000000001 0.233885 0.766115 O
0.233885 0.233885 0.766115 O
