System
1.0
5.256207 0.0 0.0
0.0 5.846973 0.0
0.0 0.0 7.59995
Ir O Tb 
4 12 4 
direct
0.49999971462327414 0.0 0.0 Ir
0.0 0.5000002565431326 0.0 Ir
0.49999971462327414 0.0 0.5 Ir
0.0 0.5000002565431326 0.5 Ir
0.6699996175951874 0.31200016008291476 0.06010000000000001 O
0.8299995262746351 0.8120004166260474 0.06010000000000001 O
0.1429999183822564 0.44500022832338804 0.25 O
0.35699979624101774 0.9450004848665206 0.25 O
0.6699996175951874 0.31200016008291476 0.44 O
0.8299995262746351 0.8120004166260474 0.44 O
0.16999990297191322 0.18800009646021784 0.56 O
0.32999981165136094 0.6880003530033504 0.56 O
0.6429996330055305 0.055300028373670464 0.75 O
0.8569995108642919 0.5550002847628772 0.75 O
0.16999990297191322 0.18800009646021784 0.9400000000000001 O
0.32999981165136094 0.6880003530033504 0.9400000000000001 O
0.9639994497936725 0.08870004551075174 0.25 Tb
0.5359996940761499 0.5890003022078102 0.25 Tb
0.46399973517039844 0.411000210878455 0.75 Tb
0.03639997922457436 0.9110004674215876 0.75 Tb
