System
1.0
5.395786 0.0 0.0
0.0 11.424178 0.0
0.0 0.0 18.250762
Nd Te Mo O
8 12 4 48
direct
0.2563528099607287 0.9228908384319926 0.9374711027322699 
0.7563524393013814 0.42289092596562733 0.5625290616444465 
0.7436464487205766 0.42289092596562733 0.06252900685220782 
0.7436464487205766 0.0771089865007379 0.06252900685220782 
0.7563524393013814 0.0771089865007379 0.5625290616444465 
0.24364681937992402 0.9228908384319926 0.43747104794003105 
0.2563528099607287 0.577108898967103 0.9374711027322699 
0.24364681937992402 0.577108898967103 0.43747104794003105 
0.22694383176217017 0.5888118969182908 0.16942501856635012 
0.713676470937898 0.7499998686995478 0.5463130598674248 
0.21367684159724532 0.2499999562331826 0.9536871045092917 
0.7269434611028229 0.41118792801443954 0.3305750362258887 
0.7863224170840601 0.7499998686995478 0.04631300507518591 
0.2730557975784826 0.5888118969182908 0.669425073358589 
0.2730557975784826 0.9111878404808047 0.669425073358589 
0.7730554269191352 0.08881198445192565 0.8305750910181275 
0.7730554269191352 0.41118792801443954 0.8305750910181275 
0.22694383176217017 0.9111878404808047 0.16942501856635012 
0.7269434611028229 0.08881198445192565 0.3305750362258887 
0.28632278774340736 0.2499999562331826 0.453687049717053 
0.7412144505234637 0.7499998686995478 0.3192310349827624 
0.2587848081578416 0.2499999562331826 0.6807690746017153 
0.7587844374984942 0.7499998686995478 0.8192310897750013 
0.2412148211828111 0.2499999562331826 0.18076901980947646 
0.5163716172037831 0.2499999562331826 0.5346000585838617 
0.9535202931370569 0.8792738460679017 0.8283120907701379 
0.6057165509706642 0.6173608919202954 0.009901001084995914 
0.35665573560423963 0.2499999562331826 0.2708000296754765 
0.983627270818175 0.2499999562331826 0.03460000379162293 
0.967383282860156 0.984799827593753 0.6593060722497036 
0.046478965544248386 0.12072597886482882 0.17168801881433982 
0.39428270771064117 0.11736097945393018 0.9900991084994818 
0.5464785948849011 0.8792738460679017 0.32831203597789904 
0.41585169172113823 0.9330598366517335 0.5736550628636836 
0.5178636160977355 0.2499999562331826 0.12226601339845573 
0.6057165509706642 0.8826388454788002 0.009901001084995914 
0.017863986757082843 0.7499998686995478 0.37773404139378314 
0.5841475669601671 0.06693998828099697 0.4263450467207941 
0.46738365351950323 0.48479991512738774 0.840694092127013 
0.14672389123075583 0.7499998686995478 0.6442260705971696 
0.39428270771064117 0.38263893301243507 0.9900991084994818 
0.41585169172113823 0.5669399007473622 0.5736550628636836 
0.5464785948849011 0.620725891331194 0.32831203597789904 
0.046478965544248386 0.3792739336015364 0.17168801881433982 
0.03261597582114945 0.48479991512738774 0.340694037334774 
0.6433435230770658 0.7499998686995478 0.7292000799090012 
0.9158513210617908 0.43305992418536826 0.926345101513033 
0.8942823370512939 0.8826388454788002 0.5099010558772348 
0.14334389373641304 0.2499999562331826 0.7708000844677154 
0.03261597582114945 0.015199997338977504 0.340694037334774 
0.5326156051618022 0.5151999098053427 0.1593060174574648 
0.08414793761951449 0.5669399007473622 0.0736550080714447 
0.4535206637964043 0.3792739336015364 0.6716880736065787 
0.10571692163001156 0.11736097945393018 0.49009905370724294 
0.46738365351950323 0.015199997338977504 0.840694092127013 
0.10571692163001156 0.38263893301243507 0.49009905370724294 
0.5326156051618022 0.984799827593753 0.1593060174574648 
0.8566553649448923 0.7499998686995478 0.22920002511676227 
0.4535206637964043 0.12072597886482882 0.6716880736065787 
0.9535202931370569 0.620725891331194 0.8283120907701379 
0.9821352719242226 0.2499999562331826 0.6222660681906946 
0.9158513210617908 0.06693998828099697 0.926345101513033 
0.8942823370512939 0.6173608919202954 0.5099010558772348 
0.8532753674505495 0.2499999562331826 0.3557740389873079 
0.6467235205714085 0.2499999562331826 0.8557740937795468 
0.4821356425835699 0.7499998686995478 0.877734096186022 
0.3532757381098968 0.7499998686995478 0.14422601580493086 
0.016371987863130332 0.7499998686995478 0.9654001057928547 
0.967383282860156 0.5151999098053427 0.6593060722497036 
0.08414793761951449 0.9330598366517335 0.0736550080714447 
0.5841475669601671 0.43305992418536826 0.4263450467207941 
0.48362764147752235 0.7499998686995478 0.4654000510006159 
