System
1.0
3.011956639 0.0 0.0
-1.50597832 2.608430965 0.0
0.0 0.0 12.457480229
Al O Rb 
2 4 2 
direct
0.0 0.0 0.0 Al
0.0 0.0 0.500000009191265 Al
0.3330001238269896 0.6670002467595451 0.0781000014356756 O
0.3330001238269896 0.6670002467595451 0.4220000077574276 O
0.6669995030418392 0.3330001231947954 0.5780000106251022 O
0.6669995030418392 0.3330001231947954 0.9220000169486926 O
0.6669995030418392 0.3330001231947954 0.2500000045956325 Rb
0.3330001238269896 0.6670002467595451 0.7500000137868975 Rb
