System
1.0
5.007359417 -4.531876597 0.0
5.007359417 4.531876597 0.0
-3.422077943 0.0 7.224882207
Mo O Pd 
4 16 4 
direct
0.71299978184346 0.2870001017279229 0.0 Mo
0.28700010172792295 0.7129997818434599 0.0 Mo
0.7140000274610834 0.7140000274610834 0.357000109053576 Mo
0.28600016588933586 0.2860001658893359 0.6430001964186257 Mo
0.9829996995006511 0.3230001950962979 0.07530002300205679 O
0.3230001950962979 0.9829996995006511 0.07530002300205679 O
0.6469999523649306 0.6469999523649306 0.08940002730921481 O
0.6569999014506275 0.35800012597047337 0.2350000717859674 O
0.35800012597047337 0.6569999014506274 0.2350000717859674 O
0.9849999177384038 0.6800001467636648 0.41700012738190806 O
0.6800001467636649 0.9849999177384039 0.41700012738190806 O
0.34600009756736966 0.34600009756736966 0.44500013593512977 O
0.6540000957830496 0.6540000957830496 0.555000169537072 O
0.3200000466502017 0.015200275525282247 0.5830001780902936 O
0.015200275525282275 0.32000004665020176 0.5830001780902936 O
0.642000067379946 0.34300029189979203 0.7650002336862344 O
0.343000291899792 0.642000067379946 0.7650002336862344 O
0.3530002411094003 0.3530002411094003 0.9110002782851758 O
0.6769999983470552 0.017000493942701866 0.9250002825617866 O
0.017000493942701977 0.6769999983470552 0.9250002825617866 O
0.3110000108771136 0.3110000108771136 0.15200004643177464 Pd
0.6899999540037355 0.31000023934668375 0.5000001527361009 Pd
0.31000023934668375 0.6899999540037355 0.5000001527361009 Pd
0.6890001824733056 0.6890001824733056 0.8480002590404271 Pd
