System
1.0
14.551761 -6.96031 0.0
14.551761 6.96031 0.0
11.222548 0.0 11.586806
Si O 
40 80 
direct
0.7699570806788394 0.12958208067883925 0.772841733199388 Si
0.8134020417826886 0.3846510417826885 0.009587996690029438 Si
0.7728250533512396 0.030047053351239528 0.40007286188674884 Si
0.030047064548458347 0.40007306454845826 0.7728247332052567 Si
0.011499057334382612 0.22304905733438252 0.765150735854476 Si
0.22717507976840087 0.9699530797684008 0.5999267928931259 Si
0.21359402843355652 0.21359402843355652 0.21359392626305257 Si
0.615614058460834 0.6475780584608337 0.23381291928304684 Si
0.23004305244080125 0.8704180524408013 0.2271579215804868 Si
0.6153490671909213 0.9904120671909215 0.18659793558261506 Si
0.12958208059217574 0.7728420805921756 0.769956734195348 Si
0.22304903469518472 0.7651510346951848 0.01149899603031378 Si
0.5999270908837326 0.2271750908837325 0.9699526651527037 Si
0.7661870622295852 0.38438606222958505 0.35242187833683297 Si
0.22715807176389796 0.23004307176389788 0.870417699514189 Si
0.009588053049328082 0.8134020530493281 0.3846508672107336 Si
0.6475780699298784 0.23381306992987821 0.6156137874776578 Si
0.02636106365502816 0.6474710636550283 0.6289197828841588 Si
0.186598091336952 0.615349091336952 0.9904116580898453 Si
0.7651510410500042 0.011499041050004072 0.22304892299899626 Si
0.9885010757852578 0.7769510757852577 0.2348489189253988 Si
0.3710800689073529 0.9736390689073529 0.35252887829989443 Si
0.7864061046860842 0.7864061046860842 0.7864057285168223 Si
0.7728420613557426 0.7699570613557426 0.12958195526568572 Si
0.8631521149024839 0.8631521149024839 0.8631517020225585 Si
0.7769510984244558 0.23484909842445584 0.9885006587495608 Si
0.40007304223590817 0.7728250422359081 0.030046989627170898 Si
0.35242206318976227 0.7661870631897622 0.38438586730221697 Si
0.9699530685711822 0.5999270685711823 0.22717492157461802 Si
0.38465106592871906 0.009588065928719025 0.8134017191972597 Si
0.8704180525274647 0.22715805252746474 0.23004292058452672 Si
0.9904120800703126 0.18659808007031237 0.6153487875691412 Si
0.23381307089005532 0.6156140708900553 0.6475777764430417 Si
0.35252908756507845 0.3710800875650784 0.9736386638802225 Si
0.6474710455545621 0.6289200455545622 0.026360990899652277 Si
0.9736390694646124 0.35252906946461227 0.37107987189571595 Si
0.6289200642122879 0.02636106421228751 0.6474707764799803 Si
0.23484909206963644 0.9885010920696364 0.7769507317808784 Si
0.3843860746588067 0.35242207465880676 0.7661867354968278 Si
0.13684801821715656 0.13684801821715656 0.1368479527573163 Si
0.5238920430353587 0.6680970430353589 0.03227498885802046 O
0.9677250709846177 0.4761080709846176 0.3319028854204048 O
0.9513980750238057 0.2818590750238057 0.5069758249816818 O
0.7523661018856704 0.34431710188567055 0.9969576558300344 O
0.1046250385723628 0.791544038572363 0.12080695829499231 O
0.3319030753164385 0.9677250753164386 0.47610783563793657 O
0.7027141013271309 0.8998441013271308 0.7183767520018022 O
0.7220070640035092 0.8930420640035093 0.13214795437985088 O
0.8248141097989434 0.8248141097989434 0.8248137152576077 O
0.17518602332069738 0.17518602332069735 0.17518593952226713 O
0.28185908837394297 0.5069760883739429 0.9513976715582632 O
0.7800361158290147 0.9965041158290144 0.8507357063088116 O
0.3090470675826317 0.6839420675826315 0.5196228206156828 O
0.8152210563802721 0.33326105638027215 0.26270890930756613 O
0.14926401291185323 0.21996401291185322 0.003495998793110442 O
0.8875440890684206 0.9162460890684206 0.42065585478108297 O
0.24763403123397 0.6556830312339702 0.0030419989498403793 O
0.9162461030934212 0.4206561030934212 0.8875436936019492 O
0.8678520462593886 0.27799304625938864 0.10695796307594584 O
0.7967830536439441 0.14607705364394397 0.3299278861022145 O
0.0322750621350229 0.5238920621350229 0.6680967693594699 O
0.27799306911613153 0.10695806911613137 0.8678517004000238 O
0.2627090584996067 0.8152210584996067 0.3332608849515958 O
0.11245604405121995 0.08375404405121989 0.5793437999987917 O
0.1460770676679533 0.32992806766795324 0.796782724934473 O
0.4761080900842817 0.3319030900842817 0.9677246659218541 O
0.3522460660675407 0.8744480660675409 0.37140387178386464 O
0.2668340856671635 0.9726380856671635 0.6689307690715564 O
0.31605807186257 0.48037707186256984 0.6909527614691189 O
0.8744480654920475 0.37140406549204735 0.3522458783975918 O
0.5196230725186635 0.3090470725186636 0.6839417638894572 O
0.8953750945472776 0.2084560945472776 0.8791926964848824 O
0.37140408117864326 0.3522460811786432 0.874447698122952 O
0.6839420612570707 0.5196230612570705 0.30904689331075597 O
0.8998441008566249 0.718377100856625 0.7027137574089848 O
0.7372910746200338 0.1847790746200339 0.666738769828279 O
0.9726380735884408 0.6689310735884407 0.2668339078835331 O
0.2816230263413633 0.2972860263413633 0.10015596542413312 O
0.0486020580958349 0.718141058095835 0.4930238297981929 O
0.4930240648581978 0.048602064858197624 0.718140752083274 O
0.5069760682614428 0.9513980682614428 0.28185890269660074 O
0.6477540670520998 0.12555206705209973 0.6285957829960102 O
0.2084560950333741 0.879193095033374 0.8953746908985304 O
0.3310690383293235 0.7331660383293235 0.027361990554086932 O
0.12555206762759324 0.6285960676275932 0.647753776382283 O
0.20321707947569662 0.8539230794756965 0.6700717686776603 O
0.0837540300262192 0.5793440300262191 0.1124559611779256 O
0.9965041137052344 0.8507361137052345 0.7800357307158744 O
0.10695805139716487 0.8678520513971648 0.27799290403122173 O
0.733166047452477 0.027362047452477 0.3310688857083184 O
0.8930420817224756 0.13214808172247572 0.722006750748653 O
0.8539230654516872 0.6700720654516872 0.20321692984540182 O
0.6285960519409973 0.6477540519409973 0.12555195665692284 O
0.6667390601422805 0.7372910601422806 0.18477893621057045 O
0.027362059531199745 0.33106905953119975 0.7331657468963415 O
0.6700720849984567 0.2032170849984566 0.8539227052085949 O
0.0030420508388654954 0.24763405083886547 0.6556827736450326 O
0.13214808686025176 0.7220070868602517 0.8930416917039289 O
0.2199640172906257 0.0034960172906256803 0.14926394847106325 O
0.12080705872085012 0.10462505872085004 0.7915437267430813 O
0.718377106778277 0.702714106778277 0.8998436893557417 O
0.18477907673936844 0.6667390767393684 0.7372907454723087 O
0.6680970578032019 0.032275057803201834 0.5238918191419382 O
0.7181410447456976 0.49302404474569766 0.048601983221611474 O
0.3299280481211839 0.796783048121184 0.14607694957127976 O
0.690953065537009 0.31605806553700894 0.48037683416419186 O
0.0034960194144059986 0.14926401941440598 0.21996392406400034 O
0.6556830385813488 0.0030420385813486744 0.2476339145117595 O
0.6689310947903173 0.26683409479031706 0.9726376642257878 O
0.5793440291640305 0.11245602916403048 0.08375397108643362 O
0.29728603179250973 0.10015603179250966 0.28162290277807267 O
0.3332610729773601 0.26270907297736 0.8152207185693042 O
0.8507361202077872 0.7800361202077872 0.9965036559867642 O
0.42065610395561 0.8875441039556099 0.9162456836934411 O
0.996958082280775 0.752366082280775 0.3443168811348421 O
0.34431709453829185 0.9969580945382919 0.7523657402681153 O
0.10015603226301563 0.28162303226301566 0.29728589737088984 O
0.8791930743987905 0.8953750743987906 0.20845592803679358 O
0.7915440380862665 0.12080703808626653 0.10462496388134439 O
0.480377060600977 0.690953060600977 0.31605789089041764 O
