System
1.0
8.66897059 -0.0 -3.06494378
-4.3344858 7.50754945 -3.06494378
0.0 -0.0 9.19483134
Tl O
16 24
direct
0.5000002579578116 0.49999996337020725 0.4999997355423753 
0.0 0.0 0.5000000728670351 
0.5000000340294176 0.0 -1.9420716606952354e-07 
2.2392839395300644e-07 0.49999996337020725 -1.4311749377124678e-07 
0.2500001141821967 0.21696105410552197 0.9669610517137402 
0.28303918798840294 0.533038890949789 0.7499998467897842 
0.5330393021705997 0.749999945055311 0.2830385495322147 
0.21696151782619655 0.9669609991608328 0.24999967538463863 
0.9669612477744411 0.24999998168510362 0.2169606544783348 
0.7500001778050325 0.28303890926468533 0.5330386353555392 
0.7500004017334264 0.7830388726348927 0.03303841937101022 
0.7169613279272201 0.46696103579062553 0.24999962429496636 
0.4669612137450235 0.24999998168510362 0.716960921552536 
0.7830389980894267 0.033038927579581684 0.7499997957001119 
0.033039268141182083 0.749999945055311 0.7830388166064159 
0.2500003381105907 0.7169610174757292 0.4669608357292114 
0.5375233221372204 0.7715725634749098 0.5426829494547531 
0.9948411364484774 0.9573166298673754 0.7288887657961108 
0.26595068344742123 0.7711106235087513 0.7284271621389151 
0.5051594992012954 0.23404966285361747 0.9624769370613567 
0.957317091591889 0.7288892666018705 0.9948402045130236 
0.7284275486835751 0.2659503005165898 0.7711104333211772 
0.2340501269810332 0.9624769894893296 0.5051590672160702 
0.5426835776676906 0.5375229006212923 0.7715723678005749 
0.7715729155567334 0.5426832602432463 0.5375225633105943 
0.7288898151534916 0.9948405671183872 0.9573162716444026 
0.7711110587120413 0.728427326635712 0.2659498507461808 
0.962477351744116 0.5051593229922346 0.23404919567484497 
0.46247719377840274 0.22842736326550483 0.4573165216299974 
0.005159379467145667 0.04268329687303914 0.2711107052886397 
0.7340498324682019 0.22888930323166332 0.2715723089458354 
0.49484101671432756 0.7659502638867971 0.03752253402339379 
0.042683424323733996 0.27111066013854396 0.005159266571726948 
0.27157296723204805 0.7340496262238247 0.22888903776357342 
0.7659503889345899 0.03752293725108497 0.49484040386868033 
0.4573169382479325 0.46247702611912234 0.22842710328417573 
0.22842760035888973 0.4573166664971681 0.4624769077741561 
0.27111070076213145 0.005159359622027425 0.04268319944034797 
0.22888945720358178 0.2715726001047024 0.7340496203385698 
0.03752316417150716 0.49484060374817984 0.7659502754099056 
