System
1.0
4.072747 0.0 0.0
0.0 15.181508 0.0
0.0 0.0 17.54971
K Nb Se O 
4 12 8 48 
direct
0.20058785224627093 0.06712799115661089 0.75 K
0.7994114111506967 0.932871877104188 0.25 K
0.20058785224627093 0.4328719429737885 0.25 K
0.7994114111506967 0.5671279252870103 0.75 K
0.26294780631170583 0.7888238960809564 0.75 Nb
0.7370514570852618 0.21117597217984246 0.25 Nb
0.26294780631170583 0.711175906310242 0.25 Nb
0.7370514570852618 0.28882396195055704 0.75 Nb
0.7420644533926708 0.14831398046123212 0.566675 Nb
0.25793481000429686 0.8516858877995669 0.066675 Nb
0.7420644533926708 0.3516859536691673 0.433325 Nb
0.25793481000429686 0.6483139145916316 0.933325 Nb
0.25793481000429686 0.8516858877995669 0.433325 Nb
0.7420644533926708 0.14831398046123212 0.933325 Nb
0.25793481000429686 0.6483139145916316 0.566675 Nb
0.7420644533926708 0.3516859536691673 0.066675 Nb
0.5884975665105886 0.9187828789602616 0.601314 Se
0.41150169688637894 0.0812169893005373 0.101314 Se
0.5884975665105886 0.5812169234309368 0.398686 Se
0.41150169688637894 0.41878294482986217 0.898686 Se
0.41150169688637894 0.0812169893005373 0.398686 Se
0.5884975665105886 0.9187828789602616 0.898686 Se
0.41150169688637894 0.41878294482986217 0.601314 Se
0.5884975665105886 0.5812169234309368 0.101314 Se
0.3025267771576944 0.9324698771571471 0.528903 O
0.6974724862392732 0.06752999110365177 0.028903000000000005 O
0.3025267771576944 0.5675299252340511 0.471097 O
0.6974724862392732 0.4324699430267477 0.971097 O
0.6974724862392732 0.06752999110365177 0.471097 O
0.3025267771576944 0.9324698771571471 0.971097 O
0.6974724862392732 0.4324699430267477 0.528903 O
0.3025267771576944 0.5675299252340511 0.028903000000000005 O
0.6727075044812472 0.026595996496264207 0.627799 O
0.3272917589157204 0.9734038717645347 0.127799 O
0.6727075044812472 0.47340393763413524 0.372201 O
0.3272917589157204 0.5265959306266635 0.872201 O
0.3272917589157204 0.9734038717645347 0.372201 O
0.6727075044812472 0.026595996496264207 0.872201 O
0.3272917589157204 0.5265959306266635 0.627799 O
0.6727075044812472 0.47340393763413524 0.127799 O
0.30948477203241054 0.8956518820075211 0.673199 O
0.690514491364557 0.10434798625327783 0.173199 O
0.30948477203241054 0.6043479203836772 0.326801 O
0.690514491364557 0.3956519478771216 0.826801 O
0.690514491364557 0.10434798625327783 0.326801 O
0.30948477203241054 0.8956518820075211 0.826801 O
0.690514491364557 0.3956519478771216 0.673199 O
0.30948477203241054 0.6043479203836772 0.173199 O
0.31312176935338526 0.7035999073082981 0.66767 O
0.6868774940435822 0.29639996095250076 0.16767 O
0.31312176935338526 0.7963998950829002 0.33233 O
0.6868774940435822 0.20359997317789866 0.83233 O
0.6868774940435822 0.29639996095250076 0.33233 O
0.31312176935338526 0.7035999073082981 0.83233 O
0.6868774940435822 0.20359997317789866 0.66767 O
0.31312176935338526 0.7963998950829002 0.16767 O
0.8141274003108464 0.7965768950595823 0.75 O
0.18587186308612116 0.20342297320121647 0.25 O
0.8141274003108464 0.7034229073316159 0.25 O
0.18587186308612116 0.2965769609291829 0.75 O
0.6858944947676631 0.24999996706519972 0.5 O
0.31410476862930453 0.7499999011955991 0.0 O
0.31410476862930453 0.7499999011955991 0.5 O
0.6858944947676631 0.24999996706519972 0.0 O
0.18778286167847277 0.14246398123190646 0.567243 O
0.8122164017184947 0.8575358870288924 0.067243 O
0.18778286167847277 0.357535952898493 0.432757 O
0.8122164017184947 0.642463915362306 0.932757 O
0.8122164017184947 0.8575358870288924 0.432757 O
0.18778286167847277 0.14246398123190646 0.932757 O
0.8122164017184947 0.642463915362306 0.567243 O
0.18778286167847277 0.357535952898493 0.067243 O
