System
1.0
-4.080321 -4.080398 -0.000358
-4.080625 -5.5e-05 -4.08077
-7e-05 -4.080687 -4.080755
Mn Re Pb O
1 1 2 6
direct
0.4999995710967531 0.49999993876392695 0.4999992035906875 
0.0 0.0 0.0 
0.24996478553158802 0.2500119693754698 0.2500086018079652 
0.7500343566619184 0.7499879081523843 0.7499898053734098 
0.7636018618025247 0.23641803564422384 0.23641630045012957 
0.7635919909884511 0.2364239064671731 0.7635577837339605 
0.7635992158195047 0.7635630356663856 0.2364153004871611 
0.23639728039098165 0.7635818418836303 0.7635821067312453 
0.23640715120505515 0.7635759710606811 0.23644062344741434 
0.2363999263740017 0.2364368418614685 0.763583106694214 
