System
1.0
-2.931925909 2.931925909 2.76826118
2.931925909 -2.931925909 2.76826118
2.931925909 2.931925909 -2.76826118
As B O 
2 2 8 
direct
0.0 0.0 0.0 As
0.7499994089018207 0.2500001065651348 0.499999302336686 As
0.5000002131302695 0.5000002131302695 0.0 B
0.25000010656513477 0.7499994089018208 0.49999930233668605 B
0.49899988026435105 0.316000135609124 0.18199974605055372 O
0.6840002915622087 0.8660000376127623 0.1819997460505537 O
0.06650002789092907 0.3839995848747247 0.3179995562861323 O
0.2510004394310533 0.9339994864229664 0.3179995562861323 O
0.06650002880172264 0.7489990764912993 0.6819990483872399 O
0.6159999310476275 0.9339994873337599 0.6819990483872398 O
0.13399947785419317 0.3159992239047469 0.8179988586228184 O
0.6839993798578317 0.5009996352026045 0.8179988586228182 O
