System
1.0
5.154484 0.0 0.409804
0.0 5.378731 0.0
-0.143477 0.0 5.008279
Lu O Ta
2 8 2
direct
0.7500008849064183 0.23300004331877602 0.5000004267663448 
0.25000048668546665 0.7670001425987177 0.5000000600118794 
0.4950005311244377 0.4390000816177797 0.23800030436501257 
0.9950009293453892 0.561000104299714 0.23800067111947798 
0.5840006100598667 0.9240001717877642 0.25200036619307753 
0.08440021215749204 0.07580001409254603 0.2519999997320157 
0.9160011597529696 0.9240001717877642 0.7480004873396121 
0.4160007615320181 0.07580001409254603 0.7480001205851466 
0.5050008404674472 0.561000104299714 0.7620001824132117 
0.005100442326139841 0.4390000816177797 0.7619998157320971 
0.7500011724814092 0.7090001318155029 1.0000003034009914 
0.2500007742604576 0.29100005410199065 0.9999999366465261 
