System
1.0
5.371884 -0.000629 0.582988
2.516527 13.528957 1.840628
-0.005985 0.181262 25.144168
Sr Cu Bi O
20 10 20 58
direct
0.16434755407475113 0.16112504945568953 0.48893394193987455 
0.15294677255283062 0.5797008940958351 0.07214194901202978 
0.7921473193017078 0.2514560231063622 0.1280418977110811 
0.8044884505332281 0.4209921055044958 0.9280298337235589 
0.6438100595929663 0.493725964959599 0.17229989699728845 
0.17284901568667216 0.9414199057524403 0.6782508871419385 
0.6577031927526702 0.6629980474278507 0.9715808329137131 
0.6710943191418495 0.8409949796820527 0.7738058354504969 
0.8148966846021662 0.8390219519263267 0.5113628386025719 
0.6663828665930488 0.04897912610683702 0.5834468905527959 
0.31039716137718876 0.5063460345511214 0.8279808860914034 
0.1709349081278733 0.7488139769910357 0.8719838844835015 
0.1541516511459684 0.38615396822766607 0.2823549449787972 
0.2981283616166934 0.9514188740959006 0.41675389147822123 
0.823520587067386 0.6134410330985165 0.7175418357792468 
0.2866769049854603 0.15872702010455594 0.22600494732653648 
0.2923600252531008 0.3374199516746784 0.028567950586188825 
0.654943948873191 0.2744490467250016 0.39056989277343335 
0.32019628701315056 0.7260299542342633 0.6094558881862473 
0.7925002131082561 0.05924009443913269 0.32183989479758207 
0.7511965128802619 0.8246439700855345 0.6443818368847093 
0.7297610382647457 0.059150109111348874 0.4521628924088731 
0.2192797197297493 0.17568003056255513 0.35568294455392235 
0.7442603975409218 0.6256600434140451 0.8452318345943582 
0.7226232525351292 0.4584169607211368 0.051378898991869655 
0.23214296864151535 0.5424200386390777 0.948743884010307 
0.24104919441975206 0.9413878915242513 0.5479668889801869 
0.21517182734735335 0.37470595637372506 0.15470294797174047 
0.2505061051047375 0.7207039702117953 0.7442938864760322 
0.7148411241126382 0.2789100302185876 0.255848895515435 
0.0362981929077662 0.02528111920405587 0.8209229397916153 
0.9366178487211764 0.5384820362900021 0.5702768381590475 
0.6051878430999635 0.5896069624752801 0.31770588607849365 
0.9540061463188467 0.6749749558041528 0.22308585252691887 
0.5180324975859146 0.4056130511868715 0.6849338799533371 
0.46961556818547695 0.6550289599461578 0.46662988637198416 
0.5493309305675736 0.7695548874368466 0.10885789628520358 
0.01992261420650229 0.8522198149206435 0.012187952152501642 
0.592258729138419 0.3457390474728421 0.5333408857727917 
0.8837710039386725 0.9748968776921327 0.17922184676556527 
0.4265963056341525 0.2310201135900525 0.8913668845761499 
0.8931089137925259 0.774717950562455 0.3669708437672958 
0.8580596818781236 0.32321210903124264 0.7792398434528441 
0.575612624181336 0.11998312523211822 0.7291048862237461 
0.573185066011686 0.9348989724995393 0.9147028309567595 
0.04838439452400199 0.46154996548683 0.4295879418340884 
0.4238881855242537 0.06507403024354261 0.08545894779434132 
0.42551262959268604 0.8800918778811406 0.2716458920711003 
0.8843065712943233 0.14823618071897504 0.9879418359987368 
0.03580828894401805 0.2265440467443752 0.6330659418418436 
0.5930569153603612 0.6929119197231306 0.18990589044593945 
0.15647491712397674 0.8922249316422629 0.7875278840553972 
0.10822063683503698 0.5397609177122322 0.1942489474518696 
0.8423555806871882 0.459940081761838 0.8070728359549704 
0.18143758431080895 0.33657999740151096 0.3910419375205266 
0.9639673251133274 0.3311890302750255 0.2077738707007255 
0.9768634631041273 0.5031259624650091 0.0008078742256735925 
0.3093721318913786 0.3678820787185724 0.9196898873423494 
0.47678388192073673 0.11624407014955619 0.40313791836627155 
0.9946466556478558 0.7748140072464138 0.6969198112744979 
0.9092237340681006 0.6635960122613948 0.608559831758493 
0.6212602967930909 0.9902369309158823 0.6929518380626959 
0.47576538755921743 0.30685408840909306 0.8098528810607956 
0.49897231282709703 0.7659499711802894 0.6922308623678314 
0.6203231928134134 0.8012710007483644 0.8821448354180809 
0.5032162602067001 0.6682460079716341 0.7922628603718982 
0.9957237064775857 0.884156968322862 0.5971568120976164 
0.9766599093442383 0.11369915713987128 0.7312328457070185 
0.48330138819266494 0.9999438896006361 0.49938886456550136 
0.30464990395494573 0.011170066101217747 0.30687494785810876 
0.3241313730884885 0.7871779245018774 0.49840689202321065 
0.974498356812823 0.9351290017370448 0.9084217906343474 
0.9815761949393204 0.0005341482533942391 0.5007258666808521 
0.3048720077601871 0.19897599650031364 0.11787695062344536 
0.6358227105486618 0.21618409550678094 0.6417158809071283 
0.502597360994471 0.8807669315326393 0.5944458625102722 
0.9668943925576164 0.41710999597797166 0.10336687288520166 
0.9548692625736458 0.23404706596725544 0.3080068700157882 
0.964230083552761 0.5429910050795812 0.3530858497196745 
0.4689909747305294 0.3335249922257004 0.2060449209327434 
0.8556637519427267 0.45709205953842763 0.6466318455407634 
0.5504425783163484 0.5786969950815638 0.5485108766946124 
0.9854795340039473 0.5854310783371472 0.8981238086797592 
0.46795604066056923 0.4153379586235865 0.10221092369777818 
0.819889460550539 0.06563706076931604 0.09102790719684982 
0.4797137131331825 0.9781528469531011 0.18197688741943757 
0.8486874552577923 0.2821850042483882 0.01825989772999263 
0.1469797952343992 0.7183059982461993 0.9817128811491648 
0.5950800536712408 0.6327989168872091 0.08043390077477601 
0.6281720562027312 0.8552218582835202 0.00021789106253951407 
0.48001111430132226 0.4975050747496806 0.9992878578261668 
0.9762712317206523 0.1198111073966382 0.4059628672909745 
0.8449697856838446 0.9063969228895923 0.40101183941080204 
0.008506908691613958 0.6662299713951314 0.7938339105847939 
0.4864931821422729 0.5835680409951004 0.8969398595038955 
0.8372673319765646 0.10833507069135948 0.21243989501583652 
0.9503332255645907 0.7752249144242209 0.09568885617013588 
0.48417327693254975 0.1453921529784424 0.9998068759640261 
0.4654579245365559 0.22529603028937445 0.3029249204938919 
0.8203005747067185 0.22540914636779316 0.9040658440585146 
0.4903276298540898 0.7889339158696358 0.3587828844485317 
0.6380556242642431 0.022441164661389196 0.8176418790849528 
0.9866780077511461 0.31248008694324003 0.5495838464044279 
0.1467224615839494 0.09420407933411085 0.5993159398421355 
0.6089478323510065 0.21310707343740087 0.5023228931685 
0.8219969106237829 0.8870489057560437 0.26864785166285843 
0.6789528379995677 0.42187602498245386 0.45136687846364304 
0.846882837325398 0.6879259786274021 0.45009884745413 
