System
1.0
6.113448 0.0 0.0
0.0 6.113448 0.0
0.0 0.0 7.041111
K Ni O 
6 2 4 
direct
0.0 0.4999998364262405 0.25000003550576544 K
0.4999998364262405 0.0 0.7500001065172962 K
0.0 0.4999998364262405 0.7500001065172962 K
0.4999998364262405 0.0 0.25000003550576544 K
0.0 0.0 0.5000000710115309 K
0.4999998364262405 0.4999998364262405 0.0 K
0.4999998364262405 0.4999998364262405 0.5000000710115309 Ni
0.0 0.0 0.0 Ni
0.707636768498311 0.707636768498311 0.5000000710115309 O
0.2923629043541699 0.2923629043541699 0.5000000710115309 O
0.7923627407804105 0.2076369320720706 0.0 O
0.2076369320720706 0.7923627407804105 0.0 O
