System
1.0
5.452724 0.000376 -0.001919
0.298798 8.544858 0.014757
0.135609 0.359847 8.806734
K Mn O P 
4 4 16 4 
direct
0.21899996083508116 0.5059997223059605 0.16999993016971882 K
0.23800012411486304 0.002459769898273385 0.316000170126097 K
0.7620001116730296 0.9979991670843786 0.6840000586492657 K
0.7810002751121026 0.4939992147777583 0.8300002987622075 K
0.7240002445076945 0.822999437871356 0.10499985054230952 Mn
0.6870003270945244 0.3449994437694703 0.42000015225151494 Mn
0.3129999088526592 0.6549994933142486 0.5800000766804112 Mn
0.275999991439489 0.17699949921236263 0.8950003783896169 Mn
0.3589999842610542 0.7979996314381629 0.06329979829173302 O
0.04359993693252213 0.24399990122267992 0.06629995209764167 O
0.7530005237151955 0.04279956817566142 0.17900015306240347 O
0.6450003399354306 0.3329995521648648 0.1880000460173893 O
0.833000349964327 0.6699993562528473 0.2769999933202948 O
0.26499996358242556 0.45099960415504886 0.46300008740732934 O
0.5490000541544914 0.8099993909546577 0.4629999977396248 O
0.9960005945765145 0.21399930159705963 0.48700026269114804 O
0.003919641310137067 0.785999635524497 0.5129999662316177 O
0.4510001817926922 0.1899995461290611 0.5370002311923016 O
0.7350002723647581 0.54899933292867 0.537000141524597 O
0.1669998859828567 0.32999958083087144 0.7230002356116314 O
0.354999896011753 0.666999384918854 0.8120001829145371 O
0.2469997123012451 0.9569993689519994 0.8210000759375939 O
0.9560002986596766 0.7559990359391583 0.9340002769249159 O
0.6410002516338043 0.20199930553448617 0.9370004307766275 O
0.7690004949131017 0.20399955684572407 0.09350006114541837 P
0.7840002714664802 0.7049993095396093 0.4450000522001255 P
0.21599996448070338 0.2949996275441093 0.5550001767318009 P
0.23099974094687337 0.7959993800528784 0.9070001680138983 P
