System
1.0
4.842725567 0.0 0.0
-1.556670276 6.118229862 0.0
-2.223146565 -1.966234526 6.731103489
Cs Cu O Se 
1 1 8 2 
direct
3.493887089089931e-07 0.49999970213412487 0.5000002591701208 Cs
0.0 0.0 0.0 Cu
0.7539993358373334 0.3879999529602787 0.06680003462512814 O
0.38599977621326786 0.038099899981149946 0.1730000896728618 O
0.8609992950663119 0.8899998744611445 0.18400009537460443 O
0.4899997700507022 0.6949997865781061 0.3450001788273834 O
0.5100000133339513 0.3049996176901436 0.6550003395128583 O
0.1390004883183416 0.10999952980710509 0.8160004229656371 O
0.6140000071649613 0.9619995042848442 0.8270004286673798 O
0.24600044739471605 0.6119994514226064 0.9330004836114455 O
0.47699962655269135 0.7859998968680885 0.149000077232696 Se
0.5230001568319623 0.21399950740016135 0.8510004411075456 Se
