System
1.0
3.77145258 -0.00046193 7.15e-06
-1.8863279 4.91430055 1.05e-05
1.801e-05 2.98e-05 10.01151384
Ti O 
6 10 
direct
0.3007119381409629 0.6012993190589101 0.2499844503094744 Ti
0.6992896143307474 0.3987003594808092 0.7500156985187083 Ti
0.6301112550542696 0.2604280793597835 0.0580915859126857 Ti
0.3698892974169531 0.7395715991803284 0.9419085629157815 Ti
0.36989887777739117 0.739592924819929 0.5580940656986872 Ti
0.6301016746938315 0.26040675372018296 0.44190608312978014 Ti
0.27090941314074896 0.5418664837290543 0.7500360776244404 O
0.7290911393304736 0.45813319481105774 0.249964071204027 O
0.5520508122579806 0.10424265913545798 0.8774119945916798 O
0.4479497402132421 0.8957570194046541 0.1225881542367874 O
0.44792727051183556 0.8956995890223539 0.37741854198275626 O
0.5520732819593873 0.10430008951775802 0.6225816068457112 O
0.1827456062528007 0.36554202155621046 0.43223861202221825 O
0.817254946218422 0.6344576569839013 0.567761536806249 O
0.8172682864648528 0.6344789521260207 0.9322896266214756 O
0.18273226600637 0.36552072641409117 0.0677105222069917 O
