System
1.0
3.565993 8.224913 0.0
-3.565993 8.224913 0.0
0.0 5.713655 7.848274
Li Dy P O 
2 2 8 24 
direct
0.7931853087784145 0.20681481547641417 0.25000012741661537 Li
0.20681457498561018 0.7931850682876105 0.7500003822498461 Li
0.29605789055486365 0.703942233699965 0.25000012741661537 Dy
0.7039419932091611 0.29605765006405965 0.7500003822498461 Dy
0.7951532139772525 0.49540396180408325 0.30660615626679505 P
0.5045961624507455 0.20484691027757618 0.19339409856643566 P
0.20484666978677218 0.5045959219599414 0.6933943533996664 P
0.4954037213132792 0.7951529734864484 0.8066064111000258 P
0.18813690845637773 0.08586282241519422 0.38366219553965397 P
0.9141373018396345 0.811863215798451 0.1163380592935768 P
0.811862975307647 0.9141370613488304 0.6163383141268076 P
0.08586258192439028 0.18813666796557377 0.8836624503728846 P
0.7412610965885109 0.508035900380726 0.47684424303139417 O
0.491964223874103 0.2587390276663177 0.023156011801836584 O
0.2587387871755136 0.4919639833832987 0.5231562666350673 O
0.5080356598899218 0.741260856097707 0.9768444978646249 O
0.6542351465403203 0.48966700809237185 0.27298413913078934 O
0.5103331161624569 0.3457649777145084 0.22701611570244143 O
0.34576473722370443 0.510332875671653 0.7270163705356723 O
0.48966676760156785 0.6542349060495163 0.7729843939640201 O
0.8997630732458629 0.32306058807736826 0.8157244157471646 O
0.6769390551958523 0.10023657002735792 0.6842763487525276 O
0.1002368105181619 0.6769392956866563 0.18427609391929684 O
0.32306082856817225 0.8997633137366667 0.3157241609139339 O
0.062205986381221205 0.07116399391741735 0.0710500362118021 O
0.9288361303374115 0.9377941378736074 0.4289502186214286 O
0.9377938973828037 0.9288358898466074 0.9289504734546594 O
0.07116375342661332 0.06220574589041719 0.5710502910450328 O
0.16623761559904404 0.3244627487107465 0.8468844316283715 O
0.6755368945624742 0.8337620276741767 0.6531163328713208 O
0.8337622681649808 0.6755371350532784 0.1531160780380899 O
0.3244629892015504 0.16623785608984792 0.34688417679514083 O
0.28263279452961454 0.028096580393287773 0.7676123912260918 O
0.9719030628799328 0.717366848743606 0.7323883732736004 O
0.7173670892344101 0.9719033033707369 0.23238811844036966 O
0.028096820884091753 0.28263303502041853 0.2676121363928611 O
