System
1.0
-2.523032828 2.523032828 3.520026006
2.523032828 -2.523032828 3.520026006
2.523032828 2.523032828 -3.520026006
B Ge K O 
1 1 1 4 
direct
0.0 0.0 0.0 B
0.7500002767748969 0.24999971633764484 0.500000560437252 Ge
0.24999971633764484 0.7500002767748969 0.500000560437252 K
0.34000013095972814 0.011799763088715845 0.13000014571368557 O
0.9880002300252033 0.11799925486438478 0.3280003676468373 O
0.7900000080920515 0.6599998623783659 0.6720007532276668 O
0.882000738248157 0.20999998502049022 0.8700009751608185 O
