System
1.0
5.10161646 -0.0 0.0
0.0 5.79474046 0.0
0.0 0.0 14.44465369
Mn Nb O 
4 8 24 
direct
0.7499994795770756 0.6731738834381114 0.0 Mn
0.24999982652569186 0.8268262356353931 0.5000001277289516 Mn
0.24999982652569186 0.326826195944225 0.0 Mn
0.7499994795770756 0.17317384374694322 0.5000001277289516 Mn
0.24365103093110663 0.817575334901035 0.8389352243125787 Nb
0.7436506839824903 0.6824247841724695 0.6610651588742762 Nb
0.2563486221202771 0.817575334901035 0.16106503114532464 Nb
0.7563482751716608 0.6824247841724695 0.33893509658362697 Nb
0.24365103093110663 0.31757529520986694 0.6610651588742762 Nb
0.7436506839824903 0.1824247444813013 0.8389352243125787 Nb
0.2563486221202771 0.31757529520986694 0.33893509658362697 Nb
0.7563482751716608 0.1824247444813013 0.16106503114532464 Nb
0.9150693550354664 0.3753977197999457 0.7441316000942498 O
0.4150697019840826 0.12460231989122249 0.7558687830926051 O
0.5849296041186848 0.3753977197999457 0.2558686553636535 O
0.0849299510673011 0.12460231989122249 0.2441314723652981 O
0.0849299510673011 0.6246023595823907 0.2558686553636535 O
0.5849296041186848 0.875397759491114 0.2441314723652981 O
0.4150697019840826 0.6246023595823907 0.7441316000942498 O
0.9150693550354664 0.875397759491114 0.7558687830926051 O
0.9091213991627394 0.38565051061383615 0.07992772041816266 O
0.40912174611135566 0.11434952907733206 0.420072407310789 O
0.5908775599914118 0.38565051061383615 0.9200725350397406 O
0.09087790694002812 0.11434952907733206 0.5799278481471144 O
0.9339235119526099 0.897314841230943 0.0964667046431758 O
0.43392385890122626 0.6026852778425617 0.40353342308577583 O
0.5660754472015411 0.897314841230943 0.9035335508147274 O
0.06607579415015749 0.6026852778425617 0.5964668323721275 O
0.06607579415015749 0.10268523815139347 0.9035335508147274 O
0.5660754472015411 0.3973148015397747 0.5964668323721275 O
0.43392385890122626 0.10268523815139347 0.0964667046431758 O
0.9339235119526099 0.3973148015397747 0.40353342308577583 O
0.9091213991627394 0.8856505503050043 0.420072407310789 O
0.40912174611135566 0.6143495687685002 0.07992772041816266 O
0.5908775599914118 0.8856505503050043 0.5799278481471144 O
0.09087790694002812 0.6143495687685002 0.9200725350397406 O
