System
1.0
5.912082 -10.240027 0.0
5.912082 10.240027 0.0
0.0 0.0 4.8102
Ba Ge O 
3 12 27 
direct
0.3312411119739076 0.3309821120497862 0.999928 Ba
0.9997412337352298 0.6687593307023285 0.999928 Ba
0.66901801524254 0.00025921116745442063 0.999928 Ba
0.33333321797328735 0.6666671203171282 0.893173 Ge
0.6666671203171282 0.3333332179732873 0.10375 Ge
0.0 0.0 0.994785 Ge
0.33820027617828174 0.8507271260243271 0.403916 Ge
0.5125272204978825 0.6618001767656864 0.403916 Ge
0.14927315724340498 0.487473058161664 0.403916 Ge
0.18084400444944848 0.0011130571048606624 0.49763499999999994 Ge
0.8202692771378457 0.819156277463919 0.49763499999999994 Ge
0.9988870793643831 0.17973131935078962 0.49763499999999994 Ge
0.48744205823103115 0.14949515723865128 0.592673 Ge
0.6620531767812041 0.5125582205784391 0.592673 Ge
0.850505125939442 0.3379472761024789 0.592673 Ge
0.4116982678702736 0.8191281485063653 0.118261 O
0.4074301949181403 0.5883021419284518 0.118261 O
0.18087219113115532 0.5925700705168602 0.118261 O
0.1540300306598717 0.08608005056703996 0.22508999999999998 O
0.9320502881342243 0.8459703133529004 0.22508999999999998 O
0.9139200421575814 0.06795028999962893 0.22508999999999998 O
0.2132112851267315 0.8880520874199863 0.307706 O
0.6748412636262949 0.7867892308291252 0.307706 O
0.11194810516654291 0.3251590427025657 0.307706 O
0.3252620429870723 0.11284210521931187 0.692055 O
0.7875802308145403 0.6747382638736232 0.692055 O
0.8871580871500646 0.21242028482663394 0.692055 O
0.5916720704030842 0.18057619084101267 0.879596 O
0.5889041422255288 0.4083281951284989 0.879596 O
0.8194241483230644 0.41109626795005777 0.879596 O
0.2501312380360452 0.7362050956319701 0.667911 O
0.4860742476955681 0.749869170412103 0.667911 O
0.263795168187956 0.5139260949076042 0.667911 O
0.48246701111700707 0.0005821522938397605 0.496086 O
0.5181151750896424 0.5175331752601497 0.496086 O
0.9994181747450277 0.4818853263655796 0.496086 O
0.5138780950570716 0.26427216818361526 0.32935499999999995 O
0.7503941704391504 0.486122247862361 0.32935499999999995 O
0.7357280954554555 0.24960623787359287 0.32935499999999995 O
0.06302528901215126 0.9111450405402228 0.757222 O
0.8481203149560955 0.9369752889244335 0.757222 O
0.08885504995132229 0.1518800314870209 0.757222 O
