System
1.0
4.245191 -7.764307 0.0
4.245191 7.764307 0.0
0.0 0.0 5.903882
Ca Ga B O 
4 4 4 16 
direct
0.267889120364959 0.4520240492182634 0.8976723040956116 Ca
0.5479761863424536 0.7321111151957579 0.3976721347154753 Ca
0.7321111151957579 0.5479761863424536 0.8976723040956116 Ca
0.4520240492182634 0.267889120364959 0.3976721347154753 Ca
0.8131670061029663 0.21682023652150967 0.6255052118962445 Ga
0.21682023652150983 0.8131670061029664 0.12550504251610806 Ga
0.7831799990392072 0.1868332294577505 0.12550504251610806 Ga
0.1868332294577505 0.7831799990392072 0.6255052118962445 Ga
0.6542732199485085 0.8659561381577247 0.8601942913995542 B
0.13404409740299225 0.34572701561220853 0.36019412201941775 B
0.34572701561220853 0.13404409740299228 0.8601942913995542 B
0.8659561381577247 0.6542732199485085 0.36019412201941775 B
0.029409086132802242 0.2841109877201938 0.16506005591577066 O
0.3158191098609097 0.4298690657938902 0.32885111140165446 O
0.23102819864124005 0.6948000194474675 0.8796402979870864 O
0.4298690657938902 0.3158191098609097 0.8288512807817909 O
0.6841811256998073 0.5701311697668269 0.32885111140165446 O
0.6767812407232332 0.9382201397075602 0.0770780261109643 O
0.30520021611324955 0.7689720369194769 0.37964012860695 O
0.6948000194474675 0.23102819864124002 0.37964012860695 O
0.06178009585315675 0.32321899483748373 0.5770781954911007 O
0.7158892478405232 0.9705911494279147 0.665060225295907 O
0.32321899483748373 0.06178009585315675 0.0770780261109643 O
0.7689720369194769 0.30520021611324955 0.8796402979870864 O
0.2841109877201937 0.029409086132802215 0.665060225295907 O
0.9705911494279147 0.7158892478405232 0.16506005591577066 O
0.5701311697668268 0.6841811256998074 0.8288512807817909 O
0.9382201397075602 0.6767812407232332 0.5770781954911007 O
