System
1.0
-2.944112765 -0.001678017499999962 0.0004630325
1.4706028949999999 -2.5505140025 -0.00046302249999999995
1.4713980749999997 0.8519502075 6.0192431475
Cr O Pd 
1 2 1 
direct
0.9999976576345724 0.5000033826844273 0.500000316607496 Cr
0.7771203170699517 0.8889234941934985 0.6660424159264523 O
0.22287893432617867 0.11107888579764146 0.3339575411065695 O
5.976096329928692e-06 0.9999951619521091 7.680152134100843e-07 Pd
