System
1.0
5.980861 0.0 0.0
-2.99043 5.179578 0.0
-2.99043 -1.726526 4.883353
Ba Hg O Te 
2 1 6 1 
direct
0.5000001377223341 0.74999995466154 0.2500001535830935 Ba
0.5000006320986614 0.25000063624800767 0.7500004607492806 Ba
3.0131048039949704e-07 0.5000002954547738 0.500000307166187 Hg
1.3860282097044596e-07 0.23000013590919594 0.23000014129644605 O
0.4590002153476369 0.23000013590919594 0.23000014129644605 O
3.434726356110751e-08 0.7699999273980812 0.23000014129644605 O
0.5400005543061586 0.7700004550003517 0.7700004730359281 O
4.6401813968977024e-07 0.7700004550003517 0.7700004730359281 O
5.682736970991087e-07 0.23000066351146642 0.7700004730359281 O
0.0 0.0 0.0 Te
