System
1.0
5.137597 -0.297463 -0.007046
0.639695 5.486841 1.204454
-0.532114 0.896829 5.209833
Cu O W 
2 8 2 
direct
0.26199900346073474 0.6529996677150001 0.4590010422979379 Cu
0.7379990331845103 0.3469992952182759 0.5410013061958447 Cu
0.09589935666529482 0.5299998721540735 0.19500062152671319 O
0.5959993566369169 0.2929995030286479 0.21500092038347413 O
0.1739997730546401 0.0031697995361580286 0.23100031508296998 O
0.6579989113274023 0.7089994385833308 0.28700134313848336 O
0.3419991253178427 0.290999524349945 0.7130010053552993 O
0.8259982634384339 0.9969991633986073 0.769002033540785 O
0.403998680008328 0.7069994599046281 0.7850014281103086 O
0.9039986800196933 0.4699990908512983 0.8050017268736777 O
0.2639995982747586 0.30399980037508 0.03680050289665342 W
0.735998438504646 0.6959991626231696 0.9630018454671226 W
