System
1.0
5.465806 0.0 0.0
-0.008695 5.811979 0.0
-0.04749 -0.065334 7.908891
Ga O Tb 
2 12 6 
direct
0.25000029441673893 0.5219997384824244 0.25000003160999834 Ga
0.7499994715309615 0.022299481053830804 0.750000094829995 Ga
0.38500013892028767 0.45999990972677424 0.01620000204832789 O
0.07670069101965954 0.8169997392361219 0.17500002212699883 O
0.9529996171638995 0.34399981100437393 0.18900002389715873 O
0.546000241493905 0.7009996657884165 0.3110000393228379 O
0.4229998980333648 0.22699973772872678 0.32500004109299785 O
0.11500045082769486 0.5849995669286537 0.48400006119695677 O
0.8849994298902113 0.08479963101427183 0.5160000652430365 O
0.5770002425864731 0.7269994113152005 0.6750000853469955 O
0.4549998508399222 0.20099949220254779 0.6890000871171553 O
0.04590073825479239 0.843999297777887 0.8110001025428346 O
0.923999613698562 0.3169993781504803 0.8260001044394344 O
0.6150004278582435 0.9599991590005744 0.9840001244169533 O
0.769999971481704 0.584999896900782 0.0035600004501263756 Tb
0.7499994714368245 0.022199824477214507 0.25000003160999834 Tb
0.7299998864442758 0.4599995801942059 0.49600006271423663 Tb
0.27000067941974515 0.9589994895293761 0.5030000635993166 Tb
0.2500002944194254 0.5219993950762466 0.750000094829995 Tb
0.2299999097849072 0.08539930055429368 0.9970001260606733 Tb
