System
1.0
5.137963 0.0 1.292837
0.0 10.363703 0.0
1.450659 0.0 5.75504
La Mn O
4 4 12
direct
0.9880007678033894 0.8260002391037949 0.016399312490107128 
0.011999908786666189 0.3260000943678416 0.48400001423521755 
0.9880006639812708 0.6740001951040652 0.5159993358132097 
0.011999804881423508 0.17400005036811175 0.9840000375769934 
0.0 0.5000001447359533 0.0 
0.5000003902891389 -1.2500003618398836e-06 -3.175460523694557e-10 
0.5000002863839685 0.5000001447359533 0.49999967502421355 
-7.809057711275519e-07 0.0 0.5000000233422476 
0.28500017861683796 0.14200004110501074 0.2109998113092189 
0.18800009832890033 0.504000145893841 0.23299987990986418 
0.7440005298367773 0.37500010855196503 0.24499949314093744 
0.2560001468364023 0.8750002532879184 0.2549998335657138 
0.8120005783442796 0.004120001192624256 0.2669994467967871 
0.7150004980563418 0.6420001858409642 0.2889995153974323 
0.28500007471159533 0.3580001036309426 0.7109998346509947 
0.18799999442365767 0.9960002883140192 0.7329999032516401 
0.7440004259315347 0.12500003618398833 0.7449995164827133 
0.2560000429311597 0.6250001809199417 0.7549998569074897 
0.812000474439037 0.4960001435780657 0.7669994701385631 
0.7150003941510992 0.858000248366896 0.7889995387392084 
