System
1.0
3.938424 0.0 0.0
0.0 3.938424 0.0
0.0 0.0 3.938424
Li O Ta 
1 3 1 
direct
0.0 0.0 0.0 Li
0.5000005078178559 0.5000005078178559 0.0 O
0.5000005078178559 0.0 0.5000005078178559 O
0.0 0.5000005078178559 0.5000005078178559 O
0.5000005078178559 0.5000005078178559 0.5000005078178559 Ta
