System
1.0
6.76784 0.0 0.0
-1.733476 7.955916 0.0
-2.57127 -3.276824 9.032469
V Zn Fe O 
6 3 4 24 
direct
0.8952892953820321 0.9020301811888789 0.6661509262492985 V
0.10471098435285364 0.0979687676715579 0.33384896303901374 V
0.22247425533482154 0.6593225199730156 0.2708739700110822 V
0.777527024400064 0.3406764288874212 0.7291259192772298 V
0.5952891028206408 0.27293079264636266 0.1278919858408608 V
0.40471117691424463 0.7270681562140742 0.8721079034474513 V
1.3986744284988362e-07 0.49999947443021847 0.49999994464415604 Zn
0.7150272902532329 0.7083225321959151 0.20365897745256836 Zn
0.2849729894816526 0.29167641666452176 0.7963409118357437 Zn
0.3800313289043704 0.951415188489075 0.6075599327360068 Fe
0.6199689508305152 0.048583760371361806 0.39243995655230524 Fe
0.042525093916892624 0.20914888654488756 0.015137998324046468 Fe
0.9574751858179931 0.7908500623155492 0.9848618909642657 Fe
0.07410899973034833 0.056226892831361626 0.14387998407080235 O
0.9258912800045374 0.9437720560290752 0.8561199052175098 O
0.5574240208469171 0.13648480445987463 0.23144897437589054 O
0.4425762588879685 0.8635141444005622 0.7685509149124214 O
0.18018017007769732 0.44029067814061984 0.18325997971097607 O
0.8198201096571882 0.559708270719817 0.816739909577336 O
0.9829209761027157 0.2772524037523926 0.8331119077647643 O
0.017079303632170015 0.7227465451080443 0.16688798152354783 O
0.23585018580088102 0.7835040761597638 0.9663508930136496 O
0.7641500939340047 0.21649487270067308 0.03364899627466241 O
0.8698213862983869 0.9731593197961574 0.3481739614530687 O
0.13017889343649866 0.026839629064279474 0.6518259278352434 O
0.5269939703244779 0.22371448766392166 0.7291779192714728 O
0.47300630941040767 0.7762844611965152 0.2708219700168393 O
0.3462809356186341 0.25379932648320574 0.9955218897840791 O
0.6537193441162515 0.7461996223772311 0.004477999504233061 O
0.3324939409441564 0.04039374616035479 0.4258639528518777 O
0.6675063387907292 0.959605202700082 0.5741359364364343 O
0.21377323984837154 0.6985073993226585 0.4549639496301676 O
0.7862270398865141 0.30149154953777824 0.5450359396581443 O
0.7204951803542651 0.4899946149964876 0.2528379720078783 O
0.2795050993806206 0.5100043338639493 0.7471619172804338 O
0.12441206852780308 0.3124776148082722 0.4159369539509126 O
0.8755882112070825 0.6875213340521645 0.5840629353373994 O
