System
1.0
6.201083 3.580197 5.063163
-6.201083 3.580197 5.063163
0.0 -7.160394 5.063163
As O Zr 
8 28 4 
direct
0.115000014603999 0.11500001460399903 0.11500017520979644 As
0.38500000351140506 0.6150001147823451 0.11500054236086071 As
0.8850001564318131 0.6150000258094056 0.3850009346502091 As
0.615000167524407 0.11499992563105949 0.38500056749914463 As
0.11499997055948241 0.38500010118189026 0.6150005889132382 As
0.3849999594668885 0.8850002013602363 0.6150009560643026 As
0.8850001123872966 0.8850001123872968 0.8850013483536509 As
0.6150001234798903 0.38500001220895075 0.8850009812025865 As
0.0 0.0 0.0 O
0.500000057847891 0.500000057847891 4.768195641102757e-07 O
0.20399995097648968 0.6020001435235944 0.055300415833383465 O
0.296000070575412 0.10199997672079314 0.055300221291001386 O
0.0552999632503777 0.29600007969783526 0.1020002256389934 O
0.44499998803681007 0.7960001578459401 0.1020006498653595 O
0.6020001725707966 0.055299908084610494 0.2040004296780606 O
0.8980001693266887 0.5550000033878524 0.2040008090833877 O
0.10200002373936459 0.05530000114652597 0.29600024370131583 O
0.3980000204952565 0.5550000964497678 0.29600062310664293 O
0.9450001412509015 0.796000069166684 0.39800105697274013 O
0.5550001163745467 0.29599999107379266 0.398000632603328 O
0.7040001052489707 0.6020000559027279 0.4450008763426727 O
0.7960002248478929 0.10199988909992652 0.4450006818002905 O
0.5000001555183762 -8.63749714530293e-08 0.5000005233719416 O
-8.63749715640516e-08 0.5000001555183762 0.5000005233719416 O
0.29600002174232487 0.3980000710885679 0.5550006472207745 O
0.20399990214340263 0.8980002378913692 0.5550008417631567 O
0.44500001061674893 0.7040001359175031 0.6020008909601192 O
0.05529998583031648 0.20400005776939817 0.6020004667337531 O
0.8980001031967173 0.9450001259346922 0.7040012800051771 O
0.6020001064960391 0.44500003054152804 0.7040009004568043 O
0.39799995436528524 0.9450002189966076 0.7960010940284326 O
0.10199995766460684 0.44500012360344343 0.7960007144800595 O
0.5550001389544855 0.20399996914535556 0.8980008736980876 O
0.9450001638308402 0.7040000472382468 0.8980012980674997 O
0.7960001760181945 0.39799998347109 0.945001107901041 O
0.7040000564192721 0.8980001502738912 0.9450013024434232 O
0.5000001498706194 -9.202272824304636e-08 2.3840978208289343e-07 Zr
-9.202272832631309e-08 0.5000001498706194 2.3840978202738228e-07 Zr
0.5000000634956477 0.5000000634956479 0.5000007617817236 Zr
5.64775676226148e-09 5.647756817772631e-09 0.5000002849621594 Zr
