System
1.0
3.909863 -3.910239 0.0
-3.909863 0.0 -3.910239
3.909863 3.910239 0.0
B Fe O 
2 4 8 
direct
0.0 0.0 0.0 B
0.750000063953336 0.4999998721306109 0.2500001918227251 B
0.37499977621924824 0.7499998081959163 0.12499984015394283 Fe
0.3750002877340877 0.24999993606530546 0.6250002237993931 Fe
0.8750004156221183 0.24999993606530546 0.6250004795568127 Fe
0.375000031976668 0.7499998081959163 0.6249999680419733 Fe
0.1120000859365809 0.22299994297025247 0.3350000289068333 O
0.6380002066638882 0.2769999291603585 0.36200027724779105 O
0.08519983713526341 0.7229998151008633 0.36199976634676956 O
0.63799997852827 0.7229998151008633 0.3620000491121727 O
0.11200008542506612 0.7769998012909693 0.887999886971774 O
0.1120003688042872 0.22299994297025247 0.8880001703509951 O
0.665000226869228 0.7769998012909693 0.8880001698394802 O
0.6380004895315945 0.2769999291603585 0.9150004186919528 O
