System
1.0
6.847245 0.0 0.0
0.0 10.242362 0.0
0.0 0.0 6.886776
O Sr W
20 8 4
direct
0.4310003147253492 0.0 0.06339996317582383 
0.23600017233220977 0.3670000716631714 0.12099992972042087 
0.23600017233220977 0.6330001236043256 0.12099992972042087 
0.05910004315607457 0.12400002421316962 0.18599989196692795 
0.05910004315607457 0.8760001710543273 0.18599989196692795 
0.5590004081936665 0.37600007342057884 0.3139998176215881 
0.5590004081936665 0.6240001218469181 0.3139998176215881 
0.7360005374428237 0.13300002597057708 0.37899977986809513 
0.7360005374428237 0.8670001692969198 0.37899977986809513 
0.9310006798359631 0.5000000976337484 0.436999746180363 
0.06930005060433109 0.0 0.562999672996669 
0.26400019277840414 0.3670000716631714 0.6209996393089369 
0.26400019277840414 0.6330001236043256 0.6209996393089369 
0.4410003220275615 0.12400002421316962 0.6859996015554439 
0.4410003220275615 0.8760001710543273 0.6859996015554439 
0.9410006871381754 0.37600007342057884 0.813999527210104 
0.9410006871381754 0.6240001218469181 0.813999527210104 
0.7640005578890181 0.13300002597057708 0.8789994894566112 
0.7640005578890181 0.8670001692969198 0.8789994894566112 
0.5690004154958787 0.5000000976337484 0.936999455768879 
0.8710006360226895 0.32200006287613403 0.1679999024217414 
0.8710006360226895 0.6780001323913629 0.1679999024217414 
0.37100027091207555 0.17800003475761444 0.33199980716677463 
0.37100027091207555 0.8220001605098823 0.33199980716677463 
0.6290004593091524 0.32200006287613403 0.6679996120102575 
0.6290004593091524 0.6780001323913629 0.6679996120102575 
0.1290000941985384 0.17800003475761444 0.8319995167552907 
0.1290000941985384 0.8220001605098823 0.8319995167552907 
0.4200003066929157 0.5000000976337484 0.15499990997243998 
0.9200006718035296 0.0 0.344999799616076 
0.07960005812560973 0.5000000976337484 0.6549996195609561 
0.5800004235283122 0.0 0.8449995092045921 
