System
1.0
2.410504 3.966388 0.0
-2.410504 3.966388 0.0
0.0 0.483072 3.053562
Cu C O 
1 1 3 
direct
0.4365458940365752 0.4365458940365752 0.5378943523061606 Cu
0.021464177940129774 0.021464177940129774 0.889412582541034 C
0.17164633914092003 0.7069102273599619 0.022385014661575338 O
0.7069102273599619 0.1716463391409201 0.022385014661575338 O
0.15343405271553737 0.15343405271553737 0.6129224014474908 O
