System
1.0
10.005621 -2.976229 0.0
10.005621 2.976229 0.0
9.120324 0.0 5.078392
Ba Tb Ru O 
4 1 3 12 
direct
0.7149670860402673 0.7149670860402673 0.7149672815723094 Ba
0.8707361047857566 0.8707361047857565 0.8707363429181295 Ba
0.2850330343013251 0.2850330343013251 0.28503311225329286 Ba
0.12926401555583558 0.12926401555583558 0.12926405090747264 Ba
0.0 0.0 0.0 Tb
0.5863660705642182 0.5863660705642182 0.5863662309259432 Ru
0.41363404977737406 0.41363404977737406 0.41363416289965915 Ru
0.5000000601707961 0.5000000601707961 0.5000001969128011 Ru
0.21976803608070583 0.21976803608070578 0.6920492725466142 O
0.692048970705863 0.21976812939017168 0.21976808655026492 O
0.2197681293901717 0.692048970705863 0.21976808655026492 O
0.7802319909514206 0.3079511496357291 0.7802323072753373 O
0.7802320842608864 0.7802320842608864 0.307951121278988 O
0.30795114963572917 0.7802319909514206 0.7802323072753373 O
0.3872060560849845 0.38720605608498443 0.8523553356792213 O
0.8523549916973787 0.38720614798536734 0.38720615249163615 O
0.1476451286442132 0.6127939723562246 0.6127942413339661 O
0.6127940642566077 0.6127940642566077 0.14764505814638104 O
0.6127939723562247 0.14764512864421314 0.6127942413339661 O
0.38720614798536734 0.8523549916973789 0.38720615249163615 O
