System
1.0
2.751558 6.90429 0.0
-2.751558 6.90429 0.0
0.0 2.102512 9.493319
Rb Eu S O 
2 2 4 16 
direct
0.49999981828490025 1.8171509977293887e-07 0.0 Rb
2.6215322497524784e-07 0.49999989872302547 0.49999994733138664 Rb
0.17842035440095488 0.8215798869134205 0.7499999209970799 Eu
0.8215798064752955 0.1784202739628298 0.24999997366569332 Eu
0.649557926162399 0.17520027095444415 0.6126349354667281 S
0.17520019051631905 0.6495578457242738 0.11263498813534147 S
0.35044223471385133 0.8247998899218062 0.3873649591960452 S
0.8247999703599311 0.3504423151519762 0.8873649065274318 S
0.7862389240295159 0.17534936806126508 0.9078119043736015 O
0.6095510487594205 0.603458053188181 0.31685096662379436 O
0.3904491121168297 0.39654210768806936 0.683148928038979 O
0.159020319532744 0.6072019937669966 0.9737288974300876 O
0.8409798413435062 0.3927981671092536 0.026270997232685715 O
0.9223369833071735 0.7871290815845142 0.20168197875537744 O
0.07766317756907679 0.21287107929173596 0.7983179159073958 O
0.21376123684673437 0.8246507928149852 0.09218799028917175 O
0.17534928762313998 0.7862388435913908 0.4078119570422149 O
0.7871291620226395 0.9223370637452986 0.701681926086764 O
0.21287099885361085 0.07766309713095171 0.29831796857600923 O
0.6072019133288715 0.15902023909461882 0.4737289500987009 O
0.6034581336263062 0.6095511291975456 0.816850913955181 O
0.39654202724994425 0.3904490316787046 0.18314898070759225 O
0.8246508732531103 0.21376131728485948 0.5921879376205584 O
0.3927982475473788 0.8409799217816314 0.5262709445640724 O
