System
1.0
1.693534 5.482382 0.0
-1.693534 5.482382 0.0
0.0 4.176528 7.213087
K Li Zn O 
2 2 2 4 
direct
0.8365152900590089 0.8365152900590089 0.6299317380046554 K
0.1634850507658481 0.1634850507658481 0.37006784608482635 K
0.3411201017808383 0.3411201017808383 0.9450066069616488 Li
0.6588802390440186 0.6588802390440186 0.05499297712783286 Li
0.04411699648930062 0.04411699648930062 0.8175406599760988 Zn
0.9558833443355563 0.9558833443355563 0.18245892411338274 Zn
0.46143716098114407 0.46143716098114407 0.3066448724631191 O
0.5385631798437129 0.5385631798437129 0.6933547116263625 O
0.8379933042137458 0.8379933042137458 0.06214897415157719 O
0.16200703661111093 0.16200703661111093 0.9378506099379044 O
