System
1.0
3.587915 8.318389 0.0
-3.587915 8.318389 0.0
0.0 5.838882 7.957239
Li Yb P O 
2 2 8 24 
direct
0.29478734911107335 0.7052127771557342 0.7499999057462136 Li
0.7052126949949413 0.29478726695028046 0.24999996858207119 Li
0.20537639155032728 0.7946235703948945 0.24999996858207119 Yb
0.7946236525556876 0.2053764737111201 0.7499999057462136 Yb
0.69092699572574 0.586364141441085 0.8845978888310521 P
0.7039485021530648 0.00518647592477646 0.19269197578406586 P
0.9948134860204455 0.29605145979215725 0.30730796138007654 P
0.00518655808556906 0.7039485843138573 0.6926919129482082 P
0.29605154195295014 0.9948135681812382 0.807307898544219 P
0.4136359848257225 0.3090731305410672 0.6154019226613752 P
0.5863640592802923 0.6909269135649474 0.38459795166690963 P
0.3090730483802745 0.41363590266492967 0.11540198549723273 P
0.9854778292731244 0.7679311324390256 0.5248829340370531 O
0.5302322259352629 0.7860478694390199 0.771692903020017 O
0.17364610573966902 0.33284888387992856 0.1536869806858911 O
0.2139522568277873 0.46976790033154436 0.7283069084724102 O
0.5595130377767338 0.5774770127427308 0.5696249284142493 O
0.4697678181707518 0.21395217466699473 0.22830697130826771 O
0.5955987742371154 0.17672135797086644 0.6847939139407634 O
0.4044012698688992 0.8232786861351482 0.3152059603875213 O
0.3328489660407211 0.17364618790046163 0.6536869178500335 O
0.01598964228376637 0.8408314928113703 0.7244889089522247 O
0.44048700632928095 0.42252303136328395 0.4303749459140356 O
0.7860477872782272 0.5302321437744704 0.27169296585587466 O
0.6671510780652936 0.826353856205553 0.3463129564782513 O
0.7679310502782328 0.9854777471123317 0.02488299687291071 O
0.1591686334554372 0.9840104839830409 0.7755109025402024 O
0.8263539383663457 0.6671511602260862 0.8463128936423937 O
0.577476930581938 0.559512955615941 0.06962499125010684 O
0.17672127581007377 0.5955986920763228 0.18479397677662107 O
0.9840104018222482 0.1591685512946444 0.27551096537606007 O
0.014522214832890346 0.23206891166698923 0.4751169402912317 O
0.823278768295941 0.404401352029692 0.8152058975516637 O
0.8408314106505775 0.015989560122973687 0.22448897178808233 O
0.23206899382778184 0.01452229699368296 0.9751168774553741 O
0.4225231135240766 0.4404870884900736 0.930374883078178 O
