System
1.0
5.210413571 -3.650224913 0.0
5.210413571 3.650224913 0.0
0.0 0.0 5.917078822
O Tl Zr 
6 4 2 
direct
0.12900008841127664 0.12900008841127664 0.0 O
0.8710005969474571 0.8710005969474571 0.0 O
0.6430005351496837 0.35700015020905 0.24999995022882904 O
0.12900008841127664 0.12900008841127664 0.4999999004576581 O
0.8710005969474571 0.8710005969474571 0.4999999004576581 O
0.35700015020905007 0.6430005351496837 0.7499998506864871 O
0.20500005330098534 0.46900040863080106 0.24999995022882904 Tl
0.5310002767279326 0.7950006320577484 0.24999995022882904 Tl
0.46900040863080106 0.20500005330098534 0.7499998506864871 Tl
0.7950006320577484 0.5310002767279326 0.7499998506864871 Tl
0.9090008933035095 0.09059979178108069 0.24999995022882904 Zr
0.09059979178108069 0.9090008933035095 0.7499998506864871 Zr
