System
1.0
5.819487 0.0 0.0
-2.909743 5.039823 0.0
0.0 0.0 19.146437
Ba Ta Cr O
8 4 4 24
direct
0.0 0.0 0.0 
0.6666665837005316 0.3333331984195864 0.2499999608282271 
0.33333268291067 0.6666663968391728 0.7499998824846813 
0.0 0.0 0.4999999216564542 
0.33333268291067 0.6666663968391728 0.14205797774134513 
0.6666665837005316 0.3333331984195864 0.8579418655715632 
0.6666665837005316 0.3333331984195864 0.6420578993977993 
0.33333268291067 0.6666663968391728 0.35794194391510903 
0.33333268291067 0.6666663968391728 0.5634189117195155 
0.6666665837005316 0.3333331984195864 0.06341899006306133 
0.6666665837005316 0.3333331984195864 0.4365809315933929 
0.33333268291067 0.6666663968391728 0.9365808532498471 
0.0 0.0 0.8186118717340666 
0.0 0.0 0.18138797157884182 
0.0 0.0 0.681387893235296 
0.0 0.0 0.31861195007761234 
0.17065973132668136 0.829340493672393 0.879928862126484 
0.17065983765666035 0.3413192031733276 0.879928862126484 
0.6586804797474192 0.829340493672393 0.879928862126484 
0.34131978686283115 0.1706611015875567 0.37992894047003 
0.8293404289535898 0.6586823920866222 0.12007098118642422 
0.8293405352835689 0.1706611015875567 0.37992894047003 
0.8293404289535898 0.6586823920866222 0.37992894047003 
0.17065973132668136 0.829340493672393 0.6200699028430352 
0.6586804797474192 0.829340493672393 0.6200699028430352 
0.34131978686283115 0.1706611015875567 0.12007098118642422 
0.8293405352835689 0.1706611015875567 0.12007098118642422 
0.17065983765666035 0.3413192031733276 0.6200699028430352 
0.8497174095695827 0.6994364163458219 0.7499998824846813 
0.1502817373917685 0.8497185058025881 0.2499999608282271 
0.6994364542973736 0.8497185058025881 0.2499999608282271 
0.3005638123130946 0.1502820894567663 0.7499998824846813 
0.49999974224545446 0.0 0.0 
0.49999863330600736 0.5000002976296772 0.4999999216564542 
8.91059521912467e-07 0.5000002976296772 0.4999999216564542 
8.91059521912467e-07 0.5000002976296772 0.0 
0.8497185292186997 0.1502820894567663 0.7499998824846813 
0.49999974224545446 0.0 0.4999999216564542 
0.1502808570421343 0.3005631789129374 0.2499999608282271 
0.49999863330600736 0.5000002976296772 0.0 
