System
1.0
5.848765 0.0 0.0
-2.924382 5.06518 0.0
-2.924382 -1.688393 4.775497
Ba In Mo O 
2 1 1 6 
direct
0.499999906752298 0.7499997995798016 0.24999984294838234 Ba
0.4999995492804819 0.24999939873940463 0.749999528845147 Ba
-6.994246403158044e-07 0.49999959915960307 0.4999996858967647 In
0.0 0.0 0.0 Mo
0.4790000737646797 0.2399998075966095 0.23999984923044707 O
-5.135392958377505e-07 0.7599998075966096 0.23999984923044707 O
-3.357238273216101e-07 0.2399998075966095 0.23999984923044707 O
-8.853099845440582e-07 0.2399993907225967 0.7599995225630823 O
-1.0631254533377543e-06 0.7599993907225967 0.7599995225630823 O
0.5209993822681003 0.7599993907225967 0.7599995225630823 O
