System
1.0
-3.99726875 -2.832459 2.8289064999999995
3.99726725 -2.832458 -2.8289075000000006
4.001356249999999 2.83246 2.8335205000000006
Ni O Sr Te
1 6 2 1
direct
0.9999957939508225 0.4999981470887425 0.4999991471374449 
0.9998287943272391 0.2434267042828875 0.7594735234839116 
0.5160467246265312 0.759644854077635 0.7594737972804217 
0.00017108833042993533 0.7565723598242887 0.24052598243128415 
0.4839534080309172 0.24035446002959704 0.24052520863487326 
0.9980333410719284 0.7577808474851301 0.7558155759826537 
0.0019667915855196344 0.2422182166221585 0.24418367993252155 
0.4996444415853978 0.7499556002265817 0.2495997477556645 
0.5003559410719183 0.2500439638802363 0.7503997581593491 
4.999996470573791e-07 4.999996414504228e-07 -1.8194595540861425e-13 
