System
1.0
5.55944789 -0.0 0.0
-0.0 6.06716521 0.0
0.0 0.0 16.76739742
Pb I O
4 8 24
direct
0.7570520826729262 0.2499998026262656 0.49999992306499524 
0.7429473480261538 0.7499994078787968 0.0 
0.24294753779312717 0.7499994078787968 0.49999992306499524 
0.25705227243989953 0.2499998026262656 0.0 
0.75549466326402 0.7013090563196133 0.3377833780252604 
0.75549466326402 0.7986897594379804 0.66221646810473 
0.7445047674350602 0.20130945106708203 0.16221654503973482 
0.7445047674350602 0.29869015418544914 0.8377833010902557 
0.2445049572020334 0.29869015418544914 0.66221646810473 
0.2445049572020334 0.20130945106708203 0.3377833780252604 
0.2554948530309933 0.7986897594379804 0.8377833010902557 
0.2554948530309933 0.7013090563196133 0.16221654503973482 
0.5928526749921992 0.9248528398327884 0.38714584042985667 
0.5928526749921992 0.5751459759248051 0.6128540057001338 
0.907146755706881 0.42485323458025726 0.11285408263513856 
0.907146755706881 0.07514637067227393 0.887145763494852 
0.40714694547385427 0.07514637067227393 0.6128540057001338 
0.40714694547385427 0.42485323458025726 0.38714584042985667 
0.0928528647591724 0.5751459759248051 0.887145763494852 
0.0928528647591724 0.9248528398327884 0.11285408263513856 
0.0023852490947166537 0.8513759678424528 0.2918475650934054 
0.0023852490947166537 0.6486228479151409 0.708152281036585 
0.49761456113831004 0.3513763625899215 0.20815235797158976 
0.49761456113831004 0.14862324266260968 0.7918474881584008 
0.3977719990319661 0.6029263039923595 0.06996617923430168 
0.3977719990319661 0.8970725117652341 0.9300336668956888 
0.10222781120106063 0.10292669873982825 0.4300337438306936 
0.10222781120106063 0.39707290651270294 0.569966102299297 
0.6022276214340874 0.39707290651270294 0.9300336668956888 
0.6022276214340874 0.10292669873982825 0.06996617923430168 
0.8977718092649928 0.8970725117652341 0.569966102299297 
0.8977718092649928 0.6029263039923595 0.4300337438306936 
0.5023850593277434 0.8513759678424528 0.20815235797158976 
0.5023850593277434 0.6486228479151409 0.7918474881584008 
0.9976143713713368 0.3513763625899215 0.2918475650934054 
0.9976143713713368 0.14862324266260968 0.708152281036585 
