System
1.0
4.783775821 0.0 0.0
1.889175271 4.891835672 0.0
0.409023068 2.035049904 6.054744226
Cu Mg O P 
1 2 8 2 
direct
0.0 0.0 0.0 Cu
0.2839998142785409 0.24499968683383197 0.3110002170672895 Mg
0.7159993770649845 0.7549991184429525 0.6890004808982714 Mg
0.23699964942591842 0.224999800813526 0.0003880002708106377 O
0.3259994314159509 0.6389993797847269 0.17700012353990427 O
0.8479992833270034 0.33899959405887636 0.3420002387042219 O
0.6069991860668814 0.8469991371720043 0.3660002554553953 O
0.3930000052766439 0.15299966810478005 0.6340004425101656 O
0.15199990801652236 0.6609992112179083 0.6580004592613391 O
0.6739997599275747 0.36099942549205766 0.8230005744256567 O
0.7629995421907878 0.7749990043429846 1.000000697965561 O
0.6389991873727565 0.6469993575175745 0.22600015774021678 P
0.36100000397076903 0.35299944775920983 0.7740005402253443 P
