System
1.0
3.243821 -1.872822 -3.692008
-3.243821 -1.872822 -3.692008
0.0 3.745642 -3.692008
Ga O W 
2 6 2 
direct
0.0 0.0 0.0 Ga
0.49999981813718625 0.49999981813718625 0.4999995511601144 Ga
0.7500000299612164 0.4729999445680688 0.0266993484953002 O
0.5269998377370858 0.9729999752293018 0.2499992390405139 O
0.026699716906562754 0.7499999398844099 0.47299966623361284 O
0.9729999193223435 0.24999969643698 0.5269994362475776 O
0.4729997985843041 0.02669966099960458 0.7499998634406767 O
0.24999960642072244 0.5269996918138701 0.9729997537723086 O
0.24999990906859312 0.24999990906859312 0.2499997755800572 W
0.7499997272057793 0.7499997272057793 0.7499993267401714 W
