System
1.0
-3.471156452 3.471156452 3.016839859
3.471156452 -3.471156452 3.016839859
3.471156452 3.471156452 -3.016839859
Ca O S
2 8 2
direct
0.0 0.0 0.0 
0.7499994772472425 0.24999998831558845 0.4999994889316539 
0.521999809785111 0.3519999835483486 0.16999982623676235 
0.6479999702017049 0.8189997954163305 0.16999982623676238 
0.10199999474506058 0.4309996584620888 0.3299996626948916 
0.2280001551616545 0.8979994703300709 0.3299996626948916 
0.1019999952327601 0.7719993104011765 0.6699993151684164 
0.568999807100742 0.8979994708177704 0.6699993151684164 
0.18099967014650034 0.351999495361126 0.8299991516265455 
0.6479994820144823 0.47799965577772 0.8299991516265456 
0.499999976631177 0.499999976631177 0.0 
0.24999998831558848 0.7499994772472425 0.49999948893165397 
