System
1.0
4.91994004 0.00505785 3.59195399
1.82773353 4.56784663 3.59195498
0.00746241 0.00505688 6.09162419
Li Pb O
8 1 6
direct
0.34609376330536507 0.346092443813231 0.3460938434829412 
0.49061583452255286 0.1035004645542521 0.7704347477137559 
0.7704344735659373 0.49061427279517905 0.10350233212452929 
0.10350244714258133 0.7704328154861686 0.49061599151097196 
0.5093860820292799 0.8964976394623578 0.22956740050284025 
0.22956744298589535 0.5093838312214308 0.896499816092067 
0.6539081532464674 0.653905660203379 0.6539083047336547 
0.8964994694092513 0.22956528853044147 0.5093861567056241 
0.0 0.0 0.0 
0.24181825742144636 0.9031082251178572 0.603070197973902 
0.09689155455913916 0.39693014167717394 0.7581839709227898 
0.7581836591303865 0.09688987889875285 0.39693195024269395 
0.6030700207094367 0.2418157883726711 0.9031106698047835 
0.9031103619926936 0.6030679623394359 0.24181817729380628 
0.39693189584239585 0.7581823156439388 0.09689147841181282 
