System
1.0
7.840359 0.0 0.0
0.0 4.045657 0.0
0.0 0.0 4.045657
O Sc Sn 
5 2 2 
direct
0.20199997423587693 0.4999996292323132 0.0 O
0.7979998982189593 0.4999996292323132 0.0 O
0.20199997423587693 0.0 0.4999996292323132 O
0.7979998982189593 0.0 0.4999996292323132 O
0.4999999362274181 0.4999996292323132 0.4999996292323132 O
0.24999996811370906 0.4999996292323132 0.4999996292323132 Sc
0.7499999043411272 0.4999996292323132 0.4999996292323132 Sc
0.0 0.0 0.0 Sn
0.4999999362274181 0.0 0.0 Sn
