System
1.0
-7.16945916 -0.0661045 -0.01543969
-0.53274422 -7.34675812 -0.04719238
2.68849392 2.45854705 8.9859513
Na Sb O 
2 10 16 
direct
0.25083205576974543 0.5660411492252149 0.9664731502125816 Na
0.7491677837147284 0.43395958289520614 0.033526767667041775 Na
0.5419704887079405 0.8253456067321796 0.2760928713097833 Sb
0.45802935077653323 0.17465512538824135 0.7239070465698402 Sb
0.7466022970624541 0.9385103822134048 0.027496942575527 Sb
0.25339754242201956 0.06149034990701624 0.9725029753040965 Sb
0.5362490900696066 0.39720447791904406 0.33133352297246327 Sb
0.46375074941486716 0.602796254201377 0.6686663949071602 Sb
0.10736990089088506 0.7633873029341582 0.334952690070624 Sb
0.8926299385935889 0.2366134291862629 0.6650472278089994 Sb
0.9687713559430611 0.6939080242266576 0.6588053382015445 Sb
0.031228483541412624 0.30609270789376336 0.341194579678079 Sb
0.06605779821250234 0.48778300744800146 0.23405748703154317 O
0.9339420412719714 0.5122177246724195 0.7659424308480802 O
0.8236210781851954 0.4570641900455683 0.42586863166360744 O
0.17637876129927857 0.5429365420748528 0.5741312862160161 O
0.8125776114846645 0.19207590618827214 0.16323058329880163 O
0.18742222799980934 0.807924825932149 0.8367693345808218 O
0.850241084653935 0.8058394101933073 0.19598582635617215 O
0.14975875483053885 0.19416132192711383 0.8040140915234514 O
0.542095437279319 0.5525157496775258 0.18276408019429483 O
0.4579044022051548 0.44748498244289525 0.8172358376853285 O
0.4417278023178126 0.6407604931995503 0.4403201006148997 O
0.5582720371666614 0.35924023892087076 0.5596798172647238 O
0.754722972085548 0.1832321517587029 0.7975326561861343 O
0.24527686739892582 0.8167685803617181 0.20246726169348905 O
0.49687858617565456 0.10553307322065189 0.9201807650879784 O
0.5031212533088193 0.8944676588997691 0.07981915279164503 O
