System
1.0
3.585932 0.0 0.0
0.0 3.585932 0.0
0.0 0.0 5.567601
O Sb Yb 
3 1 1 
direct
0.5000002788676857 0.5000002788676857 0.2910000522666858 O
0.5000002788676857 0.0 0.9090001632660393 O
0.0 0.5000002788676857 0.9090001632660393 O
0.0 0.0 0.10600001903872405 Sb
0.5000002788676857 0.5000002788676857 0.6860001232128745 Yb
