System
1.0
5.264723 -3.075627 0.0
5.264723 3.075627 0.0
3.467956 0.0 5.014984
Ba Ta Bi O
2 1 1 6
direct
0.7488159455190802 0.7488159455190802 0.7488165972633988 
0.2511839817248358 0.2511839817248358 0.25118420034696054 
0.49999996362195803 0.499999963621958 0.5000003988051797 
0.0 0.0 0.0 
0.7255098150312927 0.21885630922662827 0.3220352568584521 
0.2188557382258415 0.3220346375840218 0.7255105786742918 
0.3220353546044883 0.7255099610509723 0.2188561745618128 
0.2744901122126233 0.7811436180172876 0.6779655407519073 
0.6779645726394279 0.2744899661929435 0.7811446230485465 
0.7811441890180746 0.6779652896598944 0.2744902189360675 
