System
1.0
-6.410694 6.410694 4.425158
6.410694 -6.410694 4.425158
6.410694 6.410694 -4.425158
Ba Mn V O 
4 8 8 32 
direct
0.4999997740194705 0.4999997740194705 0.0 Ba
0.7500001989886331 0.24999988700973522 0.5000003119788978 Ba
0.0 0.0 0.0 Ba
0.24999988700973524 0.7500001989886331 0.5000003119788978 Ba
0.6677224166298092 0.16772210465091145 0.8354435212811726 Mn
0.4177219916611846 0.08227778235828587 0.0 Mn
0.08227778235828587 0.4177219916611846 0.0 Mn
0.33227766936855907 0.8322779813474568 0.16455710267662296 Mn
0.5822780943377215 0.5822780943377215 0.6645574146555207 Mn
0.8322779813469189 0.6677218786709199 0.5000003119788978 Mn
0.1677221046514494 0.3322782073274484 0.5000003119788978 Mn
0.9177217656801171 0.9177217656801171 0.3354432093022748 Mn
0.37500009949431656 0.7047933052712299 0.8297935177558111 V
0.9547931922809649 0.6249999865040516 0.8297935177558111 V
0.7952070927060362 0.12499967452515398 0.17020710620198454 V
0.8749998735137869 0.5452066677368737 0.1702071062019845 V
0.8750004114732144 0.04520689371740322 0.6702074181808824 V
0.2952073186865658 0.1250002124845813 0.6702074181808824 V
0.4547928803020672 0.6249999865040516 0.3297932057769133 V
0.37500009949431656 0.20479299329233203 0.3297932057769133 V
0.8746689696159814 0.5368447588280629 0.34054021248258776 O
0.19630608430498867 0.534129295092283 0.659460411475208 O
0.7868446458372603 0.9463057453341944 0.16217610119097944 O
0.7841291821025562 0.6246690826062462 0.8378245227668162 O
0.5536941146836444 0.7131552141805784 0.8378245227668161 O
0.9631551011897757 0.6253308904018573 0.6594604114752078 O
0.9658711028849831 0.30369368971448185 0.3405402124825877 O
0.8753307774115926 0.7158706779152826 0.16217610119097944 O
0.3753310033921221 0.21315490220114264 0.15946009949631007 O
0.053694340664173834 0.21587144185577722 0.8405405244614854 O
0.46315478921141584 0.8036940016933796 0.3378242107879183 O
0.4658713288649745 0.12533111638238684 0.6621764131698772 O
0.6963063962838862 0.03684498480805464 0.6621764131698772 O
0.2868454097777552 0.12466930858677575 0.8405405244614854 O
0.2841288701231205 0.4463059713147239 0.1594600994963101 O
0.3746691955965109 0.034128983113923206 0.33782421078791836 O
0.07775177223306753 0.6011270987969788 0.16530710314459132 O
0.4358199956523874 0.9124452930462716 0.8346935208132042 O
0.8511269858067139 0.18581957068322497 0.02337501458501351 O
0.16244509405763877 0.8277525091811279 0.9766256093727821 O
0.5777520842119653 0.412444981067374 0.4766252973938843 O
0.6624448680771091 0.6858198826621226 0.33469320883430653 O
0.35112721178724354 0.32775219720223003 0.665307415123489 O
0.9358203076312852 0.10112678681808093 0.5233753265639114 O
0.0875547929520965 0.9222483137653008 0.5233753265639114 O
0.3988729872013894 0.5641800903459808 0.4766252973938843 O
0.8141799773557159 0.8375549919407295 0.665307415123489 O
0.17224811477666774 0.14887310019165426 0.33469320883430653 O
0.6722478887961381 0.33755467996183175 0.02337501458501348 O
0.5875551049309943 0.06417977836708302 0.1653071031445913 O
0.8988732991802872 0.422248001786403 0.8346935208132042 O
0.3141802033362455 0.648873412170552 0.9766256093727821 O
