System
1.0
6.67544456 0.0 0.0
0.0 6.67544456 0.0
0.0 0.0 6.67544456
Na Cl O 
4 4 12 
direct
0.06800265645265355 0.06800265645265355 0.06800265645265355 Na
0.43199768509786596 0.9319980266483855 0.568002998003173 Na
0.568002998003173 0.43199768509786596 0.9319980266483855 Na
0.9319980266483855 0.568002998003173 0.43199768509786596 Na
0.41796766551395154 0.41796766551395154 0.41796766551395154 Cl
0.08203267603656796 0.5820330175870875 0.917968007064471 Cl
0.917968007064471 0.08203267603656796 0.5820330175870875 Cl
0.5820330175870875 0.917968007064471 0.08203267603656796 Cl
0.1959905738812732 0.40572077714809507 0.0018573612687645459 O
0.6959909154317926 0.09427956440242441 0.9981433218322745 O
0.8040101092197658 0.9057211186986147 0.498142980281755 O
0.09427956440242441 0.9981433218322745 0.6959909154317926 O
0.498142980281755 0.8040101092197658 0.9057211186986147 O
0.9981433218322745 0.6959909154317926 0.09427956440242441 O
0.40572077714809507 0.0018573612687645459 0.1959905738812732 O
0.0018573612687645459 0.1959905738812732 0.40572077714809507 O
0.3040097676692463 0.5942799059529439 0.5018577028192841 O
0.5018577028192841 0.3040097676692463 0.5942799059529439 O
0.5942799059529439 0.5018577028192841 0.3040097676692463 O
0.9057211186986147 0.498142980281755 0.8040101092197658 O
