System
1.0
-2.480283 -4.403867 -0.027491
-2.480144 4.403788 -0.027373
1.630904 -3.8e-05 -4.718229
As Li Mn O 
1 4 1 6 
direct
0.16200109163460374 0.8380008214376987 5.560365253353544e-07 As
0.499000785865646 0.5010008982868672 4.1452206480697973e-07 Li
0.3380003820509546 0.6620005387445783 0.5000003812344841 Li
0.008290681564704 0.9920004637853181 0.5000005198686758 Li
0.6590000907992174 0.34100061194512155 0.500000246438811 Li
0.8310004846333197 0.16900097399584044 2.7510722535543236e-07 Mn
0.5610010922440648 0.9280011533535502 0.22100064905842318 O
0.23900008771616627 0.2120002591622153 0.23100013447742324 O
0.9470008090513866 0.6050012843432815 0.23100052426581613 O
0.3949993513905282 0.05349994541214714 0.768999958845657 O
0.7880003579142174 0.7610008983686569 0.7690004805981454 O
0.07219971093913391 0.43899991453243314 0.7790001315081143 O
