System
1.0
5.21160092 0.0 0.0
0.0 7.04738132 0.0
0.0 0.0 10.80950953
Na Zn Si O 
8 4 4 16 
direct
0.2516056944157645 0.4981971933141355 0.09095100604542901 Na
0.7114850055979143 0.7453697096104415 0.1577629631404295 Na
0.21148491733327382 0.24536961595861617 0.34223701511945465 Na
0.7885152591960072 0.7453697096104415 0.6577629414003137 Na
0.7483944821135166 0.9981972869659606 0.9090489504743392 Na
0.24839439384887604 0.4981971933141355 0.5909509843053132 Na
0.751605782680405 0.9981972869659606 0.40904897221445513 Na
0.2885151709313667 0.24536961595861617 0.8422369933793389 Na
0.7034122441728358 0.24779085641212326 0.156731563185275 Zn
0.29658793235644526 0.7477909500639485 0.8432683933344931 Zn
0.7965880206210857 0.24779085641212326 0.6567315414451592 Zn
0.2034121559081953 0.7477909500639485 0.34326841507460915 Zn
0.19784440492532437 0.9960720965679049 0.09384871591943589 Si
0.30215568333931614 0.9960720965679049 0.59384869417932 Si
0.8021557716039567 0.4960720029160796 0.9061512406003324 Si
0.6978444931899649 0.4960720029160796 0.40615126234044824 Si
0.2661218169782847 0.9718020120220302 0.9467922388332523 O
0.7338783595509962 0.471801918370205 0.053207717686516 O
0.2338782712863558 0.9718020120220302 0.4467922605733681 O
0.7661219052429252 0.471801918370205 0.5532076959464001 O
0.7186645068653064 0.3036504468748265 0.831074053864706 O
0.2813356696639747 0.8036505405266517 0.1689259026550623 O
0.7813357579286153 0.3036504468748265 0.3310750756047784 O
0.21866441860066577 0.8036505405266517 0.6689258809149464 O
0.8871232366031995 0.022325584181662632 0.10816407529700073 O
0.11287693992608154 0.5223256778334878 0.8918358812227675 O
0.6128770281907221 0.022325584181662632 0.6081640535568849 O
0.16482724909683064 0.18779483517465156 0.6462192719022352 O
0.6648273373614713 0.6877949288264769 0.8537806628774172 O
0.3351728391678099 0.18779483517465156 0.14621929364235095 O
0.8351729274324504 0.6877949288264769 0.3537806846175332 O
0.38712314833855893 0.5223256778334878 0.3918359029628834 O
