System
1.0
-2.639459 4.571676 0.0
2.639459 4.571676 0.0
0.0 3.047785 -4.874825
Ga O Yb
2 6 2
direct
0.8449996739281079 0.8449996739281079 0.4649995230602914 
0.15500033985645437 0.15500033985645437 0.5349994512629158 
0.561999837242241 0.19599997590696777 0.2679997251186195 
0.19599987371314798 0.9739995789558871 0.2679997251186195 
0.9739994881720568 0.561999644264591 0.2679997251186195 
0.025800525737887187 0.43800036956958 0.7319992492045876 
0.804000140121023 0.025800434954057067 0.7319992492045876 
0.4380001765423215 0.8040000378775947 0.7319992492045876 
0.6369995229085545 0.6369995229085545 0.09029990738138562 
0.3630004911426288 0.3630004911426288 0.9099990666341186 
