System
1.0
6.817017624 0.0 0.0
-2.807508765 6.907061287 0.0
-0.755704682 -3.100168596 8.452648582
Bi Mg O P
6 1 20 4
direct
0.42299987118410387 0.28300006339190126 0.08329998602575522 
0.8229997056613714 0.7960001900389496 0.32599994531087884 
0.6599995396000448 0.3570001297391725 0.49399991712752805 
0.33999971706032767 0.6430001845655471 0.5059999151144315 
0.17699955099900094 0.20400012426576986 0.6739998869310808 
0.5769993852804577 0.7170002509512102 0.916999846165877 
1.28951241975624e-07 0.5000000931655436 0.0 
0.3470000456118493 0.8260001630212007 0.07119998805562752 
0.6939998471262907 0.5800001199479837 0.09279998443205384 
0.08609996944173096 0.3370000799420431 0.1339999775204226 
0.8629998511331392 0.9940002056888818 0.15999997315871353 
0.7459996586484867 0.29200008512234915 0.23999995973807028 
0.11899997894291486 0.7220001670363475 0.25399995738945774 
0.3349997057652108 0.10400005943417993 0.3129999474917334 
0.5309998153601392 0.8900002107534126 0.3509999411169278 
0.5499997083343594 0.5260001442086332 0.36099993943934744 
0.055499791845103764 0.303000108799535 0.40899993138696145 
0.9449994646409988 0.6970002055051844 0.5909999008549981 
0.4499995483260131 0.4740001700960863 0.6389998928026122 
0.46899944130023324 0.11000010355130689 0.6489998911250319 
0.6649995508951616 0.8960002548705395 0.6869998847502263 
0.8809992777174573 0.27800014726837186 0.7459998748525019 
0.25399959801188576 0.7080002291823703 0.7599998725038893 
0.1369994055891298 0.006240108660556957 0.839999859083246 
0.9139992871837874 0.6630002343626763 0.865999854721537 
0.3059994096646222 0.420000194331141 0.9069998478434573 
0.6529992109179825 0.17400015130911345 0.9289998441527806 
0.9389995806120517 0.23000007254603275 0.23199996108013463 
0.33699995059996146 0.8890001972578238 0.24699995856376403 
0.662999306060411 0.11100011704689566 0.7529998736781955 
0.060899676083174425 0.7700002417586866 0.767999871161825 
