System
1.0
5.125509 0.0 0.0
0.0 5.319135 0.0
0.0 0.0 7.322503
Ni O Yb 
4 12 4 
direct
0.4999999024487319 0.0 0.0 Ni
0.0 0.49999952999921043 0.0 Ni
0.4999999024487319 0.0 0.5000002048480711 Ni
0.0 0.49999952999921043 0.5000002048480711 Ni
0.6979998638184297 0.2949997226995341 0.040500016592693755 O
0.801999843527766 0.7949992526987446 0.040500016592693755 O
0.08199998400159203 0.4879995412792294 0.25000010242403553 O
0.41799991844713985 0.9879990712784398 0.25000010242403553 O
0.6979998638184297 0.2949997226995341 0.4600001884602254 O
0.801999843527766 0.7949992526987446 0.4600001884602254 O
0.19799996136969786 0.20499980729967626 0.5400002212359167 O
0.30199994107903405 0.7049993372988866 0.5400002212359167 O
0.581999886450324 0.01149998918998184 0.7500003072721065 O
0.9179998208958718 0.5119995187191915 0.7500003072721065 O
0.19799996136969786 0.20499980729967626 0.9600003933082963 O
0.30199994107903405 0.7049993372988866 0.9600003933082963 O
0.9809998086044119 0.0643999394638983 0.25000010242403553 Yb
0.5189998987417836 0.5639994698391093 0.25000010242403553 Yb
0.4809999061556801 0.43599959015931145 0.7500003072721065 Yb
0.018599996371092827 0.935999120158522 0.7500003072721065 Yb
