System
1.0
4.86357302 5.21892704 0.00417209
-4.86357302 5.21892704 0.00417209
0.0 1.42900279 6.95093379
Cr Cd O 
4 4 16 
direct
0.7262752787174283 0.7262752787174285 0.41783107504379285 Cr
0.27372426436056707 0.2737242643605672 0.582170072113599 Cr
0.7448650472463482 0.2551343031516342 3.010688987535332e-07 Cr
0.25513430315163405 0.7448650472463483 3.010688987535332e-07 Cr
0.21089676730281265 0.2108967673028127 0.126125635729819 Cd
0.7891027757751825 0.7891027757751828 0.8738755114275728 Cd
0.81323331603907 0.18676622703892548 0.500000573578696 Cd
0.18676622703892518 0.81323331603907 0.500000573578696 Cd
0.22017869141102903 0.49698803329376007 0.5204953595965733 O
0.5030115097842353 0.7798208516669664 0.4795057875608185 O
0.7798208516669661 0.5030115097842355 0.4795057875608185 O
0.49698803329375985 0.22017869141102922 0.5204953595965733 O
0.1140201816266534 0.7969155856655467 0.8278968954741451 O
0.20308395741244867 0.8859793614513418 0.17210425168324672 O
0.8859793614513418 0.20308395741244883 0.17210425168324672 O
0.7969155856655468 0.11402018162665353 0.8278968954741451 O
0.8545628087047227 0.8545628087047229 0.5388773582631179 O
0.14543673437327254 0.1454367343732726 0.46112378889427397 O
0.2148099669054208 0.21480996690542092 0.8119498518734574 O
0.7851895761725743 0.7851895761725746 0.18805129528393447 O
0.472426894426045 0.7748623322211123 0.9001696261297458 O
0.22513721085688293 0.5275726486519502 0.09983152102764604 O
0.5275726486519501 0.22513721085688304 0.09983152102764604 O
0.7748623322211122 0.4724268944260452 0.9001696261297458 O
