Ca  V  O 
 1.0000000000000000
     3.1111830000000000   -0.0000770000000000   -0.0000610000000000
     1.5554559999999999    5.0283879999999996   -0.0000220000000000
    -0.0003090000000000    0.0000200000000000   15.4370030000000007
 Ca  V   O  
   2   8  12
Cartesian
  1.5549517428099999  1.5174248875170000 11.5775853892500002
  3.1114451499660003  3.5108306844099997  3.8593191723080005
  3.1109367108080002  1.3941035633679999 14.7792045311440017
  3.1107366493119999  1.3941505884029999  8.3761055003060001
  1.5557272702220000  0.9817439464580000  5.6509022203760004
  1.5557258839540000  0.9816739363429999  2.0676805223420001
  1.5554337436560000  3.6340966961819996  0.6574376017880000
  1.5553475664279999  3.6340496788709999  7.0610306223340009
  3.1106804969930000  4.0465870524170002  9.7866352582190004
  3.1106694610479999  4.0466470045469993 13.3687454922640008
  1.5553436600930002  0.0001927529760000  7.7183938171890007
  1.5552576065090000  0.0001424102440000 15.4369570637570011
  3.1105140301450001  3.2363690715979994 11.5777121646950008
  1.5558081958320000  1.7917356495419998  3.8593158940960004
  3.1106893462619998  0.3012682903350000 12.9876613067960012
  1.5558117689980000  4.7270325349109994  2.4492895638040002
  1.5560539931669999  4.7271065790500000  5.2692903921010004
  3.1105451258049999  0.3012093289300000 10.1675678545850019
  1.5550233818780002  2.7786077661919997 14.0722535138940010
  3.1111930604580000  2.2498187765220004  1.3645121184640001
  3.1109749606329999  2.2499358690309998  6.3539058605990011
  1.5551279161240001  2.7785359327319998  9.0831685141220007
