Li Cr Fe  P  C  O 
 1.0000000000000000
     8.6546389999999995    0.1196470000000000   -0.0027690000000000
     0.4715730000000000    5.0051370000000004    0.0008240000000000
    -0.0021280000000000    0.0012620000000000    6.4552420000000001
 Li  Cr  Fe  P   C   O  
   6   1   1   2   2  14
Cartesian
  1.3348708188820000  3.9770124615919999  1.6148846600419999
  2.4700205998880000  1.4106050306720002  0.1174412565890000
  2.4703315765640004  1.4103625819940000  3.1066760452440003
  6.6430573548759986  3.7094757458120005  3.3641491742350000
  6.6443589463599988  3.7090754268400001  6.3203392334649999
  7.8365551699989995  1.1293389189010001  4.8397359146419996
  5.8683113270699998  1.0782143045020001  1.6120497340380000
  3.2481386753509995  4.0147852407849998  4.8411077239070002
  3.8857272105669995  3.7310595152029999  1.6124837909959999
  5.2151428875979997  1.4280311048740000  4.8396781105019997
  0.6501512673800001  3.3882275879120001  4.8426822891030001
  8.4934893261159985  1.7015490236880002  1.6113243145589999
  0.9798307643520000  4.6362710196019998  4.8408892092069999
  1.0543086633419998  2.0397934058980001  1.6144101641909998
  1.6162223190410001  2.5007774233810003  4.8430625192310002
  3.0788803796979995  4.3003421573420004  0.4010256439590000
  3.0761934945939995  4.2982953081640005  2.8233617774040001
  3.7601474699580000  0.9407400753400000  4.8376576200810000
  3.8177262385849993  2.1834869425390000  1.6112549883960001
  5.2281436984599994  2.9917236408340000  4.8408632498210000
  5.3607680822389989  4.1924049440310007  1.6146283138569999
  6.0519102458479992  0.8816190409940001  6.0418807039570002
  6.0541802564629998  0.8835288229570001  3.6378323762239999
  7.4706235034039992  2.5341490215900002  1.6111905552380001
  8.0599915356759997  3.1258967755200002  4.8410925061970005
  8.2440289159419997  0.4418477312140001  1.6111462113650001
