Ho Se  O 
 1.0000000000000000
     5.7968109999999999    3.5471219999999999    0.0000000000000000
    -5.7968109999999999    3.5471219999999999    0.0000000000000000
     0.0000000000000000    3.5267400000000002   10.7412860000000006
 Ho  Se  O  
   4   6  24
Cartesian
 -1.4462637668229998  8.0053321445940000  6.3860382481519995
  1.4462637668229998  6.2419621445939999  1.0153952481520001
 -1.4462637668230001  4.3790218554060001  9.7258907518480004
  1.4462637668230001  2.6156518554060000  4.3552477518480002
 -1.4930382347819999  7.9229527608480002  9.9308237474420000
  1.4930382347819993  6.1595827608480000  4.5601807474420006
 -4.4081849249500005  6.1921770000000000  8.0559645000000000
  4.4081849249499996  4.4288070000000008  2.6853215000000001
 -1.4930382347819999  4.4614012391519999  6.1811052525579999
  1.4930382347820002  2.6980312391520003  0.8104622525580001
 -2.2320852627940000  8.3144464161240013  8.4795148895520001
  0.5070354645479996  8.3987789901000003  7.6440576644720002
 -3.4727477370690001  5.7859830844260003  9.4255429127160006
  2.4942286498360002  5.8349702141520003  5.8394464274700004
 -0.5749566990349998  9.3299896472100006 10.2878640940820016
 -0.6149836789900001  5.8453966410720000  6.5041709115800002
  2.2320852627940004  6.5510764161239994  3.1088718895520002
 -0.6149836789900003  6.5389573589280001  9.6077580884200007
 -0.5749566990350000  3.0543643527900000  5.8240649059180001
  2.4942286498359998  6.5493837858479997 10.2724825725300004
 -3.4727477370689996  6.5983709155739998  6.6863860872840002
 -0.5070354645479995  6.6354089901000002  2.2734146644720004
  0.5070354645480001  3.9855750099000002  8.4678713355280006
  3.4727477370690001  4.0226130844260002  4.0548999127160004
 -2.4942286498360002  4.0716002141520002  0.4688034274700000
  0.5749566990349999  7.5666196472099996  4.9172210940820005
  0.6149836789900003  4.0820266410719999  1.1335279115800001
 -2.2320852627940000  4.0699075838759997  7.6324141104479999
  0.6149836789900001  4.7755873589280000  4.2371150884200004
  0.5749566990349999  1.2909943527900001  0.4534219059180000
 -2.4942286498359998  4.7860137858479996  4.9018395725300001
  3.4727477370690001  4.8350009155739997  1.3157430872840001
 -0.5070354645480001  2.2222050099000001  3.0972283355279999
  2.2320852627940000  2.3065375838760001  2.2617711104480001
