Ca  V Fe  P  O 
 1.0000000000000000
     4.9073110000000000    0.0254220000000000    0.0784480000000000
     0.0294390000000000    8.1502189999999999   -0.0073770000000000
    -2.1903640000000002    0.0069350000000000    6.8530590000000000
 Ca  V   Fe  P   O  
   1   1   1   4  14
Cartesian
 -0.6273922754520002  7.6226763451180002  5.1133466644899999
 -0.5567093816330000  4.0798737232670002  5.0561985271749998
  3.1932567766690001  0.1228269151500000  1.8685813947619998
  0.7882629422659998  1.6881447547660000  3.3874807567940000
  0.8359185833459998  6.2793434420099992  0.8670097476500001
  1.8234669954959999  2.1973388534249998  6.1281220976449999
  1.8902827961860000  5.7105668793450004  3.5400938628429999
 -1.6274029979640003  2.4243681650910003  5.6477669390790002
 -1.3004695346300004  5.5147100987359989  6.4028187887980001
 -0.2746158016020000  0.5920262953179999  3.1370415833459999
  0.2272517099209998  3.0838143101759998  3.4784896171140001
  0.5900697542980000  5.7567711441710001  4.3840989883689998
  0.9558962502049997  3.4473797041639997  6.2065441376999999
  1.1963332354429996  1.2213498337449999  4.9348189222709999
  1.4923966354370000  5.3704534915080000  2.0126722068260001
  1.7441820164490001  7.5333271945300009  0.6667954386880001
  2.0053328615739998  1.5716650582629998  2.4997349015150001
  2.5513708088850002  7.1110366174260005  3.5467612975299998
  2.8357638137699999  4.6108728088519992  3.9472812793919996
  3.9488477705179998  1.2539914709569999  0.4664070442350000
  4.3284847133850004  6.6768660109760001  1.3443719794300000
