 Y Mo  O 
 1.0000000000000000
     5.4018940300000002   -0.0000000000000000    0.0000000000000000
    -0.0000000000000000    5.8156447399999998    0.0000000000000000
     0.0000000000000000    0.0000000000000000    7.8260570899999999
 Y   Mo  O  
   4   4  12
Cartesian
  2.8182296970429426  2.4936811775023582  1.9565142725000000
  0.1172826820429420  0.4141411924976418  5.8695428175000002
  5.2846113479570578  5.4015035475023581  1.9565142725000000
  2.5836643329570581  3.3219635624976416  5.8695428175000002
  2.7009470150000001  0.0000000000000000  0.0000000000000000
  0.0000000000000000  2.9078223699999999  0.0000000000000000
  0.0000000000000000  2.9078223699999999  3.9130285450000000
  2.7009470150000001  0.0000000000000000  3.9130285450000000
  0.9779328580619754  4.7130754964323573  7.3057653190637613
  3.6788798730619754  4.0103916135676423  0.5202917709362381
  1.7230141569380246  1.8052531264323575  4.4333203159362382
  4.4239611719380250  1.1025692435676424  3.3927367740637617
  4.4239611719380250  1.1025692435676424  0.5202917709362381
  1.7230141569380246  1.8052531264323575  7.3057653190637613
  3.6788798730619754  4.0103916135676423  3.3927367740637617
  0.9779328580619754  4.7130754964323573  4.4333203159362382
  3.4325108843500787  5.4543250132001191  5.8695428175000002
  0.7315638693500788  3.2691420967998810  1.9565142725000000
  4.6703301606499217  2.5465026432001192  5.8695428175000002
  1.9693831456499216  0.3613197267998808  1.9565142725000000
