Li Mn  B  O 
 1.0000000000000000
     5.2366299999999999    0.0000000000000000    0.0000000000000000
     0.2369340000000000    9.0826650000000004    0.0000000000000000
     0.1199750000000000    0.2632860000000000   10.3406369999999992
 Li  Mn  B   O  
   4   8   8  24
Cartesian
  0.3429148354890000  0.6899005683450000  3.2914764602849997
  0.7015595581350000  0.8966572102620001  8.7974727185789998
  2.2721144060329999  3.8394695008710000  0.6378208307969999
  2.3176406675129999  4.1272774444170004  6.1947343856789994
  0.6986832633409999  6.6729324310020006  3.9185533692389996
  0.3705017306710001  4.0238139944070008  8.9795713361489984
  2.3987870264950000  0.7247179968120000  1.2276094027289999
  2.4168837800340000  7.2184732712460002  6.4163238959519999
  3.0656526265119997  2.5314588434520000  3.7760076881939995
  3.5527258355659996  8.3141344286910002  9.0557714902019999
  4.8317981845509994  5.5254989962170002  1.2619403175690000
  4.9861137913980000  2.2794385995000002  6.3260914974900002
  0.5203394964979999  3.9094035350669998  3.9231549527039999
  0.9026360923860000  7.0526252430990004  8.9516205943379994
  2.2367624338269998  6.7807064004389996  1.3704342809729999
  2.3899146644569997  0.9186542926650000  6.5497077726150001
  3.2921943103799998  8.5044436428870007  3.8393957930039999
  3.1877901685930006  2.4150767335380001  9.1277113018109990
  4.8598716690519996  2.3793142268610006  1.1804457573719997
  4.9947580532450004  5.3994328361010009  6.4359194030669995
  0.3906815723560000  1.3093772105880002  1.4476684987260000
  0.6559343045900000  6.3289454652900003  5.8666569955799988
  0.1836425100240000  3.5568806574150003  0.6281936977499999
  0.4010773196050000  4.2643951880490008  7.0182833976329997
  1.0076936270360000  6.9413693581440006  2.0189473304279999
  1.0771727124310000  0.8988751257480001  6.8747967186209999
  1.8385274333940003  4.0814067138840002  4.1973059208479997
  2.1386031823589997  6.9326091978480004  8.3092498832609998
  2.4052151193380000  0.5199122435400001  3.1927750801199997
  2.6127445611700000  1.1958461155710001  9.5985515263319989
  2.3885360035869998  7.6420119233069999  4.4916314717789998
  2.4448521441769997  3.5346973652010005  9.0560300061269992
  2.7987707021690000  5.5664374442310001  1.1853575599469999
  2.9848364317209994  2.0378628450090002  5.9749131243329998
  2.8605505019719999  7.9074445733280010  0.8420173896359999
  3.4082328321749995  8.8593894212940008  6.8339098399229998
  3.4707014844569999  2.4313116291030004  1.4818443040110001
  3.6695794583270001  5.5272913799490011  6.3821274093929992
  4.6164865719670001  8.3505139338600003  3.8427358187549996
  4.5488426911750004  2.3518465882110000  8.7657683255369996
  5.0082280080390005  5.0012506929959999  3.4498536565769999
  0.2889890079500000  5.9091109347600002  9.4504115606700001
  5.1121631896060000  2.6901864191699998  4.1647949581199999
  0.3231457656560000  8.2475705737710001  9.1739649711119995
