Li Fe  P  O 
 1.0000000000000000
     5.1227250000000000   -0.1639040000000000    0.2656230000000000
     2.9157530000000000    6.5216630000000002   -0.0990810000000000
     1.6663640000000000   -0.1674740000000000   16.2306319999999999
 Li  Fe  P   O  
   8   4   8  28
Cartesian
  4.8795363303929999  2.0267953049409999  0.2896507890110000
  7.1586114267659999  5.2061781625149992  8.3622379133579994
  2.5325323453559996  0.9865171889950000  8.0489999129520005
  4.8531185178239999  4.1666649217739993 16.0924134141799975
  4.7940679619419999  1.5893703501150001  6.3005596084899995
  7.0831140855739996  4.8056283099049999 14.3790514587939988
  2.6208972214589998  1.4307743042009999  2.0371884350570002
  4.9273721752319997  4.6016079628729996 10.0739612861280001
  7.6445658061480000  2.8786299292720003 11.0824546615199999
  1.4670828280740000 -0.0334711573610000 13.4802076661140013
  8.2543218645949992  6.2188192821289991  2.9032238553850003
  2.0813425203309999  3.3169291640659999  5.3294346697009995
  4.6552391785759992  2.8461485107750000  3.2972030452759999
  6.9238516075109997  6.0133178826530012 11.3724823316489996
  2.7606058838640002  0.1682853265980000  5.0352534893759993
  5.0493755849289998  3.3335879014910001 13.0814264263949998
  5.6661007670619998  4.9240429042730005  1.2514037009300001
  5.0128693274330001  1.5703458950530000  9.4245215633150003
  4.6744555652930000  4.6116846314160007  6.9810352929270003
  4.0638352241910001  1.2865024581710001 15.1479692591369997
  3.1912504274039999  3.2242552699419997  3.5647896873680001
  2.5402966030230001 -0.1285248252030000 11.7299182466529999
  7.1396137153790002  6.3115432123620003  4.6663649408530006
  6.4840086031589994  2.8685588603999999 12.7990499363090002
  5.4624074732969996  2.5414365320559997  4.5401356521510001
  7.7128179339030005  5.6979161313109996 12.6214826822769997
  1.9507271893050000  0.4754319795860001  3.7940121604589998
  4.2542707683450001  3.6789684515739998 11.8410038879989994
  4.7154945824370005  1.6839684154460002  2.2606389993709999
  6.9900881656239999  4.8522457192490007 10.3311113311279996
  2.7011522152340000  1.3291459664490000  6.0733929277900005
  5.0452344188520000  4.5051597939480006 14.1118742771119994
  3.1737831651649997  4.2994478325990002  6.8637035204390004
  2.5780527759729996  0.9244699463800001 15.0723017911789992
  7.1683049078909997  5.2312119867549995  1.3705864845250002
  6.5074548211629990  1.8750598385510002  9.5434114150929990
  4.6345735538400001  0.6556148932000000  8.2513320906519994
  6.9674887565879997  3.8453903353509999 16.3014778024599991
  2.7797485761629996  2.3720665155389997  0.0868084003050000
  5.0395515341530004  5.5290262426290004  8.1564434232350003
  5.3528858286159995  4.1285818999829997  2.6338012447960000
  4.6955190746769997  0.7805856816940000 10.8150965784109996
  4.9789814720660006  5.4060569879529998  5.5959954647060002
  4.2811152079969998  2.1002741675909999 13.7562277953710002
  5.5771060360700000  3.3758375424350002  6.9606047965939997
  5.0088207720000000  0.0788569934480000 15.0986116069119998
  4.7701775117430003  6.1641658436820004  1.2730137758050000
  4.1123637789180005  2.8117027923909998  9.4483061654300009
