Ca Sc Co  O 
 1.0000000000000000
     6.3604149999999997   -0.0840290000000000   -0.3543100000000000
    -0.4368200000000000    6.5513209999999997    6.2981020000000001
     0.2873380000000000   -6.3793420000000003    6.6776830000000000
 Ca  Sc  Co  O  
  10   4   4  24
Cartesian
  1.3002504369560000  4.0471050992199995  5.5185677829079998
  1.6703812363380000 -2.4469523460350002  5.7384701493529997
  0.7232483761339999 -1.5273067541260006  8.9604139715890003
  0.7529484741400000 -1.6589123139430002  2.4721863547059999
  2.3891112253759998  0.8054484753259998  4.7654882675319996
  2.2763357624160001  0.9003925765779998 11.2277480337799993
  3.9172088357610000 -0.6239819300270000  7.8752384434460003
  3.9721962058279994 -0.7563835314459999  1.4312172352899999
  5.4587032481620001  1.5688834178369999  3.6078987129750000
  5.3525450078499999  1.7252713795009997 10.0639242196870011
  1.4841321892569999  1.5971093438399999  1.5052504200540000
  1.3948372024469999  1.7406970392449999  7.9416101546850006
  4.4427371581350004  4.8436726391880001  4.4630442029010000
  4.8148381364069994 -1.6891914910029999  4.7182679828919998
  3.2732173783050000 -3.2107736326679999  3.1634873865629998
 -0.0313614001360000  0.0881620626370000  6.4686192070880004
  3.2540260786889998 -3.1443974864670006  9.6068600731589999
  6.6445215459919993 -6.4228364798660005  6.3170867981959997
  6.1493781831530008  0.4079702263809999  1.6484935263139999
  6.0347846837819992  0.5024635335429993  7.9558233920540005
  3.2439243183329998  1.2124273561640000  2.5579879146789999
  3.1859919561190000  1.5097603976809999  9.0387170947360005
  0.1717228639299999 -0.4673790240559998 11.0032662223099997
  0.3006239587670000 -0.5348086284990006  4.6850493318240005
  2.8693443267549998 -1.1572389688550004 10.2180623941790003
  2.8897104104349998 -1.4359294632099999  3.7190069254150000
  5.9334664712990000 -1.7853338685340006  6.5083642312750003
  5.5263666788529999  4.7101784283239994  6.2927536176899999
  3.4490844658099999  2.9752827111209998  4.7201249593919998
  3.8007926998829995 -3.5082057897030001  4.9551374656800000
  1.8250437980069998 -0.1587657416470002  6.9809522999200002
  1.8712956589340002 -0.2706342232280000  0.4279821799310000
  1.1308980811430001  2.7350544526460001  3.3443624816440001
  1.0184477201219999  2.7717245236929999  9.8246102813179998
  4.4896214998549997  0.1715630992289995  5.5693906744890000
  4.4254563354620000  0.3327895087969996 12.0908346882249997
  4.9950339814369995 -2.5465971037820005  9.2965009171549990
  5.0754278630569996 -2.5948259024150002  2.8718315322349999
  2.5923832451449997 -2.8049417311370002  7.8778155825589993
  2.1691303627870000  3.6863780311639998  7.6800220394770005
  0.5252772610569999  1.8596602580620001  6.0040058752490006
  0.8550886584350000 -4.5986643130480003  6.2326448883400003
