Na Ca Tb Se  O 
 1.0000000000000000
    -0.0000000000000000   -4.0079034800000004   -4.0079034800000004
     4.0079034800000004   -0.0000000000000000   -4.0079034800000004
     4.0079034800000004   -4.0079034800000004    0.0000000000000000
 Na  Ca  Tb  Se  O  
   1   1   1   1   6
Cartesian
  6.0118552200000011 -6.0118552200000011 -6.0118552200000011
  2.0039517400000002 -2.0039517400000002 -2.0039517400000002
  4.0079034800000004 -4.0079034800000004 -4.0079034800000004
  0.0000000000000000  0.0000000000000000  0.0000000000000000
  1.8115358208802625 -4.0079034800000004 -4.0079034800000004
  6.2042711391197383 -4.0079034800000004 -4.0079034800000004
  4.0079034800000004 -6.2042711391197383 -4.0079034800000004
  4.0079034800000004 -1.8115358208802625 -4.0079034800000004
  4.0079034800000004 -4.0079034800000004 -6.2042711391197383
  4.0079034800000004 -4.0079034800000004 -1.8115358208802625
