Co  O 
 1.0000000000000000
     2.8050190000000002   -4.8584360000000002    0.0000000000000000
     2.8050190000000002    4.8584360000000002    0.0000000000000000
     0.0000000000000000    0.0000000000000000    8.5516850000000009
 Co  O  
   8  16
Cartesian
  2.8050190000000002  3.2322397358240003  1.8052179450750003
  2.8050190000000002  1.6194819056240002  4.1510819675350001
  1.4083243043870000  0.8130932736519999  1.8052179450750003
  4.2017136956130008  0.8130932736520001  1.8052179450750003
  1.4083243043870000 -0.8130932736519999  6.0810604450750008
  2.8050190000000002 -1.6194819056240002  8.4269244675350006
  4.2017136956129999 -0.8130932736519998  6.0810604450750008
  2.8050190000000002 -3.2322397358239998  6.0810604450750008
  2.8050190000000002  3.2684933852560003  5.1478834745049999
  1.5774024346500002  2.3282402661760000  2.9155345187350004
  2.8050190000000002  1.6194819056240002  0.8469161239750000
  0.0000000000000000  0.0000000000000000  2.7234038118400004
  0.0000000000000000  0.0000000000000000  6.9992463118400003
  1.3769333367580001  0.7949761658080001  5.1478834745049999
  4.0326355653500006  2.3282402661760000  2.9155345187350004
  2.8050190000000002  0.2019457507759999  2.9155345187350004
  1.3769333367580001 -0.7949761658080000  0.8720409745050001
  4.2331046632420009  0.7949761658080002  5.1478834745049999
  2.8050190000000002 -0.2019457507759999  7.1913770187350003
  1.5774024346500000 -2.3282402661760000  7.1913770187350003
  2.8050190000000002 -1.6194819056240002  5.1227586239750007
  4.2331046632420009 -0.7949761658079997  0.8720409745050001
  4.0326355653499997 -2.3282402661760000  7.1913770187350003
  2.8050190000000006 -3.2684933852559999  0.8720409745050001
