 K Mg Co Mo  O 
 1.0000000000000000
    10.3462130000000005    0.0090180000000000   -0.0180180000000000
    -5.1652950000000004    8.9045299999999994    0.0101250000000000
    -0.0152420000000000    0.0007300000000000    8.7306380000000008
 K   Mg  Co  Mo  O  
   8   1   2   8  30
Cartesian
 -2.5116900143600001  6.0709956942039991  1.2103352166870001
  1.3934617290029996  8.0516625294299988  1.2192731763380000
  3.8472431109569998  0.9635855211879999  7.4099276822610003
 10.3190651867380012  0.0130035425740000  8.5645961712900007
  7.5587095733880014  2.8591072705859997  7.3966846556460002
  4.0669771152559999  5.1098707300959996  7.4027108046840002
  1.1501045470500000  3.6937928521640000  1.2136965621320002
 10.3055877965450016  0.0178345192820000  5.5900398510660008
 -5.1114323742970011  8.8921530367820001  2.7800081505590004
 -0.0022460744750003  5.9333833460480001  4.0418855742340005
  5.1706766670220015  2.9779958114699996  4.2986979402420005
  8.6235109936290009  2.7768185117019999  3.2372589619350007
 -3.4145282836849997  6.0722203596539988  5.4807401960120004
  3.2950087974379998  0.0936463437420000  3.2407248724440003
  5.1768774478100008  2.9788917883579997  1.2600852761290002
  1.7856979496989995  8.8131457678919976  5.4878944433700001
 -0.0083722523450004  5.9370534083019999  7.2385838672860006
  3.6099247104290004  6.0463311610499986  3.2507181841240005
  1.5914548093279997  2.9420565110960002  5.4713803490310005
  0.7471906689469996  7.3093510150399998  5.6153205645320003
  4.4178220135960000  4.4382865311639996  2.9313653773580000
  2.7744497195450002  8.7975234975959999  3.9931835088780003
  1.8481535967330007  5.8394605952579992  2.9446267982970005
 -0.8012818410070004  4.5585329541960000  8.0421594014310003
 -1.0074467470530002  4.3907413318459998  2.9455051597300006
  2.8519600596410002  0.0943408718560000  4.9476151929290006
 -0.8217489890840000  7.5658957742160000  2.9526386669490003
  3.5484005325710006  3.0603292177519998  0.4592266258670000
  6.2063738820730006  4.4267241793739993  5.4598119313650004
  0.8026865811470001  4.5888648120039992  5.6004036193840010
  6.8266440238959998  2.8981520525800000  2.9221555554110004
  8.8375584489190011  2.4103214560499997  4.9491221265940011
  3.8254202540749991  6.4191245200519989  4.9608304046910003
 -0.8044422807730000  7.3057113563399998  8.0530772687120002
  6.0591332422630000  4.3467455463980000  0.4530700727520000
  1.8785759170320000  0.0152629974540000  2.0281775572040002
 -3.9188986065450004  6.9674843603319987  3.9983052223010005
  5.9171805797840005  1.5320532506960001  0.4483855760570000
  8.0328376319060020  0.0268965189340000  6.9048394427230013
  9.4114050768440016  1.5710235778719999  2.0526487198800001
  4.2938737998910002  1.5924818533299996  2.9276234074410006
  3.3859805594250005  3.1514235935619994  5.4654178777359999
 -1.5968413588140000  5.9135332527719990  5.6062086496369998
  1.0715079172900002  2.0640975915199995  3.9873245816650007
  5.8874569390540010  1.3701688406319998  5.4807237451050002
  4.2604080036900012  7.3241292749599989  2.0592586030950000
  6.2991626592999994  6.9366469811700000  6.9048585582400008
  1.5775701172030003  5.9360905578839995  8.0480915298150002
  1.1653844374390001  1.9618051577979998  6.9105234842980003
