Mn Zn  O 
 1.0000000000000000
     5.1882479999999997    0.0000000000000000    0.0000000000000000
     0.0000000000000000    7.4055070000000001    0.0000000000000000
     0.0000000000000000    0.0000000000000000    5.0778169999999996
 Mn  Zn  O  
   4   4  12
Cartesian
  0.0000000000000000  0.0000000000000000  2.5389084999999998
  0.0000000000000000  3.7027535000000000  2.5389084999999998
  2.5941239999999999  0.0000000000000000  0.0000000000000000
  2.5941239999999999  3.7027535000000000  0.0000000000000000
  0.2498037647040000  1.8513767500000000  5.0329494089880003
  2.3443202352959998  5.5541302500000000  2.4940409089879996
  2.8439277647039996  1.8513767500000000  2.5837760910119996
  4.9384442352960001  5.5541302500000000  0.0448675910120000
  0.3220345533600000  5.5541302500000000  3.1486019871899997
  0.9831314900159999  4.1798903160099998  0.9384719823059999
  0.9831314900159999  6.9283701839900003  0.9384719823059999
  1.6109925099839999  0.4771368160100000  3.4773804823059997
  1.6109925099839999  3.2256166839900002  3.4773804823059997
  2.2720894466399999  1.8513767500000000  0.6096934871899999
  2.9161585533599998  5.5541302500000000  4.4681235128099992
  3.5772554900159999  6.9283701839900003  1.6004365176939999
  3.5772554900159999  4.1798903160099998  1.6004365176939999
  4.2051165099840002  0.4771368160100000  4.1393450176939997
  4.2051165099840002  3.2256166839900002  4.1393450176939997
  4.8662134466399998  1.8513767500000000  1.9292150128099999
