Li  V  P  O 
 1.0000000000000000
     9.9542669999999998    0.0000000000000000    0.0000000000000000
     0.0000000000000000    8.6375309999999992    0.0000000000000000
     0.0000000000000000    6.9721099999999998   14.7695109999999996
 Li  V   P   O  
  24   8  16  64
Cartesian
  3.9988181849730000 11.5702452425469993  6.5624777445859994
  8.7405034076220005 10.8722374244359994 11.6870549762560003
  6.1431663821129998 10.1762618958320008 10.6133262960670010
  0.8593717786440001  2.4326000506179999  0.3111197492150000
  1.0166193344429999  1.8901553969960001  3.7728420459279999
  5.8167759214500006  2.1882396335439998  0.0634350497450000
  0.8396424214499999  9.9353463664559989  7.3213204502549996
  5.9937528344429998 10.2334306030039990  3.6119134540719999
  5.8365052786439993  9.6909859493820001  7.0736357507849998
  1.1660328821129999  8.9194341041679994 11.5409402039329994
  3.7633699076220002  8.2234585755639991 10.4672115237440000
  8.9759516849729994  0.5533407574529999  0.8222777554139999
  0.9783153150269999 15.0563002425469996 13.9472332445860001
  6.1908970923780000  7.3861824244359990  4.3022994762559996
  8.7882341178870007  6.6902068958319996  3.2285707960670003
  4.1177617213559996  5.9186550506179998  7.6958752492149998
  3.9605141655569995  5.3762103969960000 11.1575975459280006
  9.1146245785500000  5.6742946335440001  7.4481905497450009
  4.1374910785500001 13.4214013664559992 14.7060759502549985
  8.9376476655569999 13.7194856030039993 10.9966689540719997
  9.0948952213559995 13.1770409493819987 14.4583912507849988
  3.8111006178869999  5.4333791041679991  4.1561847039330004
  1.2137635923779999  4.7374035755639996  3.0824560237439997
  5.9554488150269993  4.0393957574529997  8.2070332554140002
  8.4779197984289993  2.9164878363179998  5.6970139390080003
  3.7745385951960002 10.8247446001209990 12.6893287622269995
  8.7516720951959996  8.2709513998789994  9.4649377377730008
  3.5007862984290004  9.2070981636819997  1.6877415609919999
  6.4534807015710003  6.4025428363179993 13.0817694390079993
  1.2025949048039999  7.3386896001209996  5.3045732622269997
  6.1797284048040000  4.7848963998789991  2.0801822377729997
  1.4763472015710000 12.6931531636819983  9.0724970609920010
  8.4404021661059989  3.3080481435399998  2.4085970843690001
  3.6481890841650002 11.1599422372249997  9.3866888684949998
  8.4168802331849992 11.3694522429279985  8.8178706913520006
  3.3479285743769998  3.7986219263729999  1.2862767129899999
  8.3250620743769996  8.3249640736269992  6.0984787870099995
  3.4397467331849998  7.7262437570720000 13.3363958086479997
  8.6253225841649996  7.9357537627749997 12.7675776315049987
  3.4632686661059999  8.8155378564599989  4.9761584156310006
  6.4909983338940007  6.7941031435399992  9.7933525843689999
  1.3289444158350001  7.6738872372249993  2.0019333684950000
  6.5145202668150004  7.8833972429279990  1.4331151913519999
  1.6292049256230001  7.2846769263729998  8.6710322129899993
  6.6063384256229991 11.8110190736269995 13.4832342870099993
  1.5373867668149999  4.2401887570719996  5.9516403086479999
  6.3060779158350000  4.4496987627749993  5.3828221315049998
  1.5138648338940000 12.3015928564599992 12.3609139156310004
  0.5745503369730000  3.0503129459679998  6.1479271098380002
  5.8189459516559996 10.9767113494849990 12.4291342869399983
  7.6135907948190003 11.4780838111900003 10.1286057145579989
  1.8610597125869999  3.6738183273959999  1.6249268307090001
  3.5649515035109998 11.4178074613120000 14.6564947018280005
  9.1798847530019998  3.0480335508759997  3.7834908633589994
  7.4568509066369995 11.3422673176519986  7.5880725884259990
  6.4465525317390000  2.9279917786779999  5.0515124607530000
  1.5954898232940000 10.7376864257389997 12.5671553672349994
  3.9732655815840001 10.2676343236609995 10.6460703019539995
  9.1491061594380003  2.4976911484919997  1.3414851451080001
  6.9172997724359995  2.9212574006989995  2.4528908478579998
  4.7808054919589997 10.9734587531279981  8.3738696516699989
  2.2099866337379996 10.8015891786779985  8.8670236239599998
  9.2663276076300001 10.0669517227099998  8.8428016259200000
  4.0485098858369994  2.4072013373640000  1.3292559899999998
  9.0256433858370002  9.7163846626359991  6.0554995099999998
  4.2891941076300002  9.0287442772900004 13.3114648740799986
  7.1871201337380004  8.2941068213219999 13.2872428760399988
  1.9401662724360000  9.2023285993009996  4.9318646521420000
  9.7579389919589996  8.1222372468720003 13.7803968483299997
  4.1719726594379996  9.6258948515079990  6.0432703548919999
  8.9503990815839991  8.8280616763389990 11.5081961980460008
  6.5726233232940006  8.3580095742609988  9.5871111327649992
  1.4694190317389999  9.1955942213219988  2.3332430392469998
  2.4797174066370000  7.7534286823479999 14.5661939115740005
  4.2027512530019999  9.0755524491240003  3.6012646366409999
  6.8381932125870000  8.4497676726040005  5.7598286692910001
  8.5420850035109996  7.6778885386879994  7.4977717981719998
  2.6364572948189999  7.6176121888099999 12.0256607854419997
  5.5516838369729999  9.0732730540319988  1.2368283901619999
  0.8418124516560000  8.1189846505149994  9.7251322130600002
  9.1124545483439992  7.4906563494849996  5.0443787869400003
  4.4025831630269998  6.5363679459680002 13.5326826098380000
  7.3178097051809994  7.9920288111900000  2.7438502145579999
  1.4121819964889999  7.9317524613119996  7.2717392018279998
  3.1160737874130002  7.1598733273959994  9.0096823307089995
  5.7515157469979998  6.5340885508759996 11.1682463633589997
  7.4745495933630002  7.8562123176519991  0.2033170884260000
  8.4848479682610005  6.4140467786779993 12.4362679607529998
  3.3816436767060001  7.2516314257389993  5.1823998672349996
  1.0038679184160000  6.7815793236609991  3.2613148019540001
  5.7822943405620002  5.9837461484920000  8.7262406451079997
  0.1963280080410000  7.4874037531279987  0.9891141516700001
  8.0141007275639993  6.4073124006989994  9.8376463478579996
  2.7671468662620002  7.3155341786779990  1.4822681239600000
  5.6650728923699996  6.5808967227099995  1.4580461259199999
  0.9286236141630000  5.8932563373639999  8.7140114899999990
  5.9057571141629994 13.2024396626359994 13.4402550099999996
  0.6879393923700000  5.5426892772900000  5.9267093740800005
  7.7442803662619992  4.8080518213219996  5.9024873760399998
  5.1734615080410000  4.6361822468720000  6.3956413483299999
  3.0369672275639998 12.6883835993009999 12.3166201521420007
  0.8051608405620000 13.1119498515079993 13.4280258548919988
  5.9810014184160005  5.3420066763389995  4.1234406980460001
  8.3587771767059991  4.8719545742609993  2.2023556327649998
  3.5077144682609998 12.6816492213219991  9.7179985392470005
  2.4974160933629999  4.2673736823479995  7.1814384115739998
  0.7743822469980000 12.5616074491240006 10.9860201366410006
  6.3893154964889991  4.1918335386879990  0.1130162981720000
  8.0932072874129997 11.9358226726039991 13.1445841692910008
  2.3406762051809999  4.1315571888099996  4.6409052854419999
  4.1353210483440002  4.6329296505149999  2.3403767130599999
  9.3797166630270006 12.5593280540319991  8.6215838901620003
