Li Mn Nb  O 
 1.0000000000000000
     6.2090779999999999   -0.0000010000000000   -0.0000030000000000
    -0.0000010000000000    6.2090920000000001    0.0000100000000000
    -0.0000040000000000    0.0000140000000000    8.7732569999999992
 Li  Mn  Nb  O  
   4   4   4  16
Cartesian
 -0.0000002269040000  1.4088678111680000  0.0000022690400000
 -0.0000027730910000  4.8002001433719999  4.3866362309099998
  1.4088884708240001  0.0000032730920000  2.1933135692760000
  4.8001845291810001  6.2090955178020000  6.5799416574569989
  3.1044890890699999  1.4793653419120001  0.0001061616880000
  3.1045114019879998  4.7297947490059995  4.3865205651909998
  1.4793734243240000  3.1046237706480002  2.1931957097420001
  4.7297244119239998  3.1045805749880002  6.5801735694899994
  1.5612512843749999  1.5613157275389999  5.4833663445219996
  1.5612497873739999  4.6478153967729998  7.6764837805410000
  4.6478532581029999  1.5612993120059999  3.2899014577999997
  4.6478475518570006  4.6478106090910005  1.0967500973890001
  6.1822907809199998  1.5546846537100001  2.2069123151719996
  6.1822778759490005  4.6544061458000003  2.1797026641939996
  1.5545991238580001  6.1822451959179991  8.7596588840049989
  1.5546021028050001  0.0268486760400000  4.4002263404519999
  4.6544728847989996  6.1822245309920003  0.0136062562080000
  4.6544718885569996  0.0268481333640000  4.3730101994939998
  0.0267951364650000  1.5546863925740002  6.5663379193150000
  0.0268008339120000  4.6544079715169993  6.5935575547559990
  1.5686609669109997  3.0946670840880000  0.0013202147200000
  1.5686589649409999  3.1144065742360003  4.3852992228860002
  3.0946342685619999  1.5686928386869998  2.1919641996469998
  3.0946461907829996  4.6403989553810003  2.1946537633929997
  3.1144330170690000  1.5686936307320001  6.5813036264829998
  3.1144201054420004  4.6403997388059999  6.5785888639289993
  4.6404140318909999  3.1143936655739997  4.3879560355770000
  4.6404058271889994  3.0946805851829997  8.7719525267199998
