Li Sn  P  O 
 1.0000000000000000
     7.1902970000000002    0.0000000000000000    0.0000000000000000
     0.0000000000000000    5.2014030000000000    0.0000000000000000
     0.0000000000000000    0.8192150000000000   19.0272779999999990
 Li  Sn  P   O  
   2   4  10  32
Cartesian
  4.5401692347100004  4.1419489916280003  0.6521028716159999
  2.6501277652900002  4.5515564916280002 10.1657418716159995
  6.0346652758630004  4.3535255518030000 11.2140497530259982
  6.0468528292780004  2.0772995227840001 17.2986307664219972
  1.1556317241370000  3.9439180518029997  1.7004107530260000
  1.1434441707220000  1.6676920227840000  7.7849917664219994
  3.4112207027400001  1.4700088307060000  2.5111059867719998
  1.0693122086519999  1.8758473637799999 11.1684984494939989
  3.7790762972600005  1.8796163307060001 12.0247449867719993
  1.8679456867390001  0.2321502890410000  4.7768171691779999
  6.1817284204040002  4.2187037625350001  7.8779971012859997
  1.0085685795960000  4.6283112625350000 17.3916361012860001
  3.3436534818310002  4.0667795757159997  7.0353170132219995
  3.8466435181690004  4.4763870757160005 16.5489560132219999
  5.3223513132610005  0.6417577890410000 14.2904561691780003
  6.1209847913480004  1.4662398637800000  1.6548594494939999
  2.8171583646000000  1.2652435395179999  3.9860244682200001
  1.6100225430520001  2.6850758796029996  9.9746509186619985
  5.5802744569480005  2.2754683796029997  0.4610119186620000
  4.3731386354000001  1.6748510395179999 13.4996634682199979
  1.1071259805750000  4.5339707115389993  3.8452606655759998
  2.9591883012410003  4.5626940649370002  5.5542527209800001
  4.9167610400850004  4.1831974326090000  6.8602660556219996
  4.9785544525030003  1.5452271533489998  2.8373096408039999
  6.1626309915719997  1.4476780205910000 15.2409638416680000
  6.2583554155329999  5.1669733853620006  1.3472264187900000
  1.4778648841919999  3.9630378602670002 18.6943577168339985
  3.1025915846090002  0.3080667768740000  1.6012786346459997
  3.0249579479000004  2.8677883603360002  2.0564111244059999
  0.6895207211120000  0.9144134289800000 17.5434357251699993
  0.1851070059680000  2.0885921391300002  2.2819604778179996
  4.0877054153909995  0.7176742768740001 11.1149176346459999
  2.7707809489500002  4.9692831785389995  8.1057536189460002
  2.2735359599150002  4.5928049326089999 16.3739050556220000
  4.1653390521000002  3.2773958603360001 11.5700501244059986
  0.9319415844670000  5.5765808853620005 10.8608654187900004
  3.0107714919190003  2.5914791451219998  7.1486244537119994
  0.0988953449380000  3.4290595957450001  7.1647786127340005
  2.2117425474970003  1.9548346533489998 12.3509486408039990
  6.5007762788879999  0.5048059289800000  8.0297967251699998
  5.7124321158079994  3.5534303602670003  9.1807187168339990
  4.4195160510500004  5.3788906785390003 17.6193926189459980
  7.0914016550619996  3.8386670957450000 16.6784176127339983
  4.1795255080810003  3.0010866451220002 16.6622634537120007
  1.0276660084280000  1.0380705205910001  5.7273248416679996
  7.0051899940320004  2.4981996391300001 11.7955994778179996
  4.2311086987590008  4.9723015649370002 15.0678917209799987
  6.0831710194250004  4.9435782115389992 13.3588996655760006
