 K Mo  O 
 1.0000000000000000
     6.2540052399999997   -0.0001771500000000    0.0000661900000000
    -1.0861257200000001   10.1074356200000004   -0.0093171400000000
    -0.7512849600000000   -1.3643080700000001   16.7917625500000014
 K   Mo  O  
  24   6  30
Cartesian
 -0.6313030499990097  4.9109985693063658  3.0034529250161630
  5.0478976099990094  3.8319518306936349 13.7790586749838369
  2.7867470926323543  1.3610631131105895  8.4702542291079048
  1.6298474673676457  7.3818872868894116  8.3122573708920946
 -0.2772645031514825  6.9893011688918616  0.0736615079038547
  4.6938590631514820  1.7536492311081386 16.7088500920961458
 -0.6231202629687704  8.2984379400309205  3.6725863444354601
  5.0397148229687696  0.4445124599690779 13.1099252555645407
  3.2213109900299868 -0.4276133930797256  5.3847809793358978
  1.1952835699700131  9.1705637930797241 11.3977306206641043
  1.3606953828772899  0.3114669185311327  0.9731890758569922
  3.0558991771227091  8.4314834814688666 15.8093225241430098
  2.1798793672726227  4.0185211402686649  1.5721205900763178
  2.2367151927273770  4.7244292597313340 15.2103910099236828
  3.8213519007837604  3.4325092751353217  5.8000279430100736
  0.5952426592162400  5.3104411248646777 10.9824836569899276
  0.7090004353000394  4.0063031066426911  7.1838922351516690
  3.7075941246999595  4.7366472933573105  9.5986193648483322
  4.3728978913589458  0.7522521592910079  2.4786355693017721
  0.0436966686410527  7.9906982407089933 14.3038760306982304
 -0.0347978294357337  0.2450785528885871  6.9952944935218930
  4.4513923894357337  8.4978718471114139  9.7872171064781082
  1.8605149979727797  6.3092033301342472  4.8585643071731566
  2.5560795620272203  2.4337470698657535 11.9239472928268455
 -0.3511222319731189  1.9679781075108393  9.9406917200931808
  4.7677167919731192  6.7749722924891609  6.8418198799068213
  2.8631682231803355  7.5151412563707645  1.6225784216120078
  1.5534263368196644  1.2278091436292364 15.1599331783879929
  0.9222573972030474  2.0140996034025846  4.1787352501492743
  3.4943371627969526  6.7288507965974151 12.6037763498507278
 -0.6671460180444033  6.2177104308782205  8.3709157234312919
  5.0837405780444023  2.5252399691217802  8.4115958765687111
  0.0340551984230447  0.0990034087696518 15.5125716010156296
  4.3825393615769546  8.6439469912303473  1.2699399989843729
  1.7444855750031500  1.7275413750724185  5.8905916589057652
  2.6721089849968491  7.0154090249275818 10.8919199410942351
  0.7507298229552681  0.4980462526898995  9.7657337834406945
  3.6658647370447324  8.2449041473101001  7.0167778165593058
  0.1655164467465507  2.4220683772269531  2.4464309140622307
  4.2510781132534490  6.3208820227730476 14.3360806859377696
  1.8866853550675542  0.6557975999298289  3.4596661300566947
  2.5299092049324456  8.0871528000701716 13.3228454699433065
  1.3266243296529570  6.4950928158867471  2.0964086901290515
  3.0899702303470424  2.2478575841132526 14.6861029098709501
  1.5489936295840059  0.5200032544170706 13.4672803879090193
  2.8676009304159931  8.2229471455829302  3.3152312120909833
  1.9758466412541864  8.2629786780449876  0.1914042685008316
  2.4407479187458132  0.4799717219550115 16.5911073314991704
 -0.0411638902686318  7.9472869309358662  6.3738609335151173
  4.4577584502686305  0.7956634690641340 10.4086506664848830
  1.1801744522742326  3.0862905477292508  9.6180603456936868
  3.2364201077257673  5.6566598522707503  7.1644512543063161
  3.8397693401643540  6.0063736274650239  1.2293149303942825
  0.5768252198356457  2.7365767725349772 15.5531966696057182
  5.5245860139909650  1.5514187947459599  4.8189749267326594
 -1.1079914539909650  7.1915316052540410 11.9635366732673418
 -0.6839442038505976  2.9207699537171576 11.4746379592747321
  5.1005387638505963  5.8221804462828430  5.3078736407252691
  1.5727229648235321  3.7394258348455289  4.2362072334193215
  2.8438715951764681  5.0035245651544713 12.5463043665806779
