Si  O 
 1.0000000000000000
    -5.1172814100000004    6.2924944700000003   10.8607634799999992
     5.1172814100000004   -6.2924944700000003   10.8607634799999992
     5.1172814100000004    6.2924944700000003  -10.8607634799999992
 Si  O  
  24  48
Cartesian
  2.2671760147675144  4.6759283516283459  2.4138878768782575
  2.2671760147675140  7.9090605883716547 -2.4138878768782552
  2.8501105125138957  4.6759220591338764  8.4468647423582635
  7.9673816879510762  1.6165724108661248  2.4138987376417362
  2.8501053952324851  1.6165661183716549  8.4468756031217431
  2.8501053952324855 -1.6165661183716540 13.2746513568782554
  2.2671708974861047  1.6165724108661246  2.4138987376417358
 -2.8501002779510758  4.6759220591338755  8.4468647423582635
  5.1172916445628198  0.7234714972953287  3.4089349529859065
 -0.0000102345628197  5.5690229727046718  7.4518285270140936
  0.0000000000000001  0.7234840822842685  7.4518068054871325
  5.1172814100000004  5.5690103877157329  3.4089566745128659
  5.1172814099999995  4.7236910275033228  6.3685566453598996
  0.0000000000000001  1.5688034424966768  4.4922068346401005
 -0.0000000511728142  4.7236910904282681  4.4922069432477363
  5.1172814611728148  1.5688033795717327  6.3685565367522630
  5.1172814611728148  4.7171744573052470 -1.4608892240521396
 -0.0000000511728143  1.5753200126947540 12.3216527040521378
 -0.0000000000000003  4.7171745202301913 12.3216525954445064
  5.1172814100000004  1.5753199497698087 -1.4608891154445052
  7.3592471379011508  0.0000000000000002  0.0000000000000004
  2.8753156820988504  6.2924944700000003  0.0000000000000014
  2.8753156820988508  0.0000000000000001 -0.0000000000000001
  2.2419657279011500 -0.0000000000000003 10.8607634800000010
  1.9584789305596684  5.6444702960246955  1.1571586330773473
  1.9584789305596688  6.9405186439753050 -1.1571586330773478
  3.1588075967217417  5.6444640035302251  9.7035939861591700
  8.2760787721589217  0.6480304664697752  1.1571694938408279
  3.1588024794403320  0.6480241739753050  9.7036048469226515
  3.1588024794403315 -0.6480241739753047 12.0179221130773470
  1.9584738132782584  0.6480304664697747  1.1571694938408279
 -3.1587973621589223  5.6444640035302260  9.7035939861591718
  3.8147725061730977  4.8017428772094251  2.8489368279508076
  3.8147776234545083  7.7832523552850468 -2.8489476887142882
  1.3025089038269018  4.8017302922204843  8.0118266520491943
  6.4197851965454928  1.4907578852850456  2.8489476887142891
  1.3025089038269022  1.4907515927905757  8.0118266520491908
  1.3025037865454920 -1.4907578852850458 13.7097111687142874
  3.8147725061730977  1.4907641777795160  2.8489368279508080
 -1.3025037865454927  4.8017365847149547  8.0118157912857129
  1.3229976798275167  5.0970534181832070  3.6499135730801471
  6.4402842071089266  1.1954473443112634  7.2108390461563729
  3.7942786128910733  5.0970471256887375  7.2108607676833323
  3.7942837301724834  7.4879355218167944 -7.2108499069198526
  3.7942837301724834  1.1954410518167939  7.2108499069198526
 -1.3230027971089262  5.0970471256887366  3.6499244338436263
  1.3230027971089267  1.1954473443112636  3.6499027123166661
  1.3229976798275165 -1.1954410518167935 18.0716133869198536
  1.9618105877944629  3.1462534645695257  1.9984857211181208
  1.9618207711844695  9.4387354125055296 -1.9984856125104866
  3.1554708222055377  3.1462410054304741  8.8622777588818789
  3.1554606388155313 -3.1462409425055298 12.8592490925104848
  5.1172813588271859 -0.8027791401228074  2.8811093417847071
  0.0000000511728141  7.0952736101228080  7.9796541382152926
  5.1172814100000004  5.4897152669522482 -2.8811092331770722
 -0.0000000000000001  0.8027792030477522 13.7418727131770719
  5.1172814100000004  0.7077062816501910  5.0140439294660615
  0.0000000000000003  5.5847881883498101  5.8467195505339369
 -0.0000000511728140  0.7077063445751348  5.8467196591415718
  5.1172814611728139  5.5847881254248648  5.0140438208584266
  5.1172814100000004  3.1462472350000001  6.0034736014865855
  0.0000000000000002  3.1462472350000001  4.8572898785134129
  1.3142833589687992 -1.1751449884534768 10.2480532910605291
  1.3142833077959861  1.1751449255285316 11.4734737775471043
 -1.3142833077959861  5.1173495444714687 11.4734735603318345
  3.8029980510312007  1.1751449884534766 -0.6127101889394688
  3.8029980510312011  7.4676394584534771  0.6127101889394683
  3.8029981022040151  5.1173495444714678 -0.6127102975471048
  6.4315647177959852  1.1751449255285324 -0.6127100803318346
  1.3142833589687992  5.1173494815465235 11.4734736689394694
  5.1172814100000004  3.1462472349999997 -1.7439842558072982
  0.0000000000000000  3.1462472350000006 12.6047477358072975
