Ba Nd Fe Sn  O 
 1.0000000000000000
     0.0000000000000000   -4.0661206700000001   -4.0661206700000001
     4.0661206700000001    0.0000000000000000   -4.0661206700000001
     4.0661206700000001   -4.0661206700000001    0.0000000000000000
 Ba  Nd  Fe  Sn  O  
   1   1   1   1   6
Cartesian
  2.0330603350000001 -2.0330603350000001 -2.0330603350000001
  6.0991810050000002 -6.0991810050000002 -6.0991810050000002
  0.0000000000000000  0.0000000000000000  0.0000000000000000
  4.0661206700000001 -4.0661206700000001 -4.0661206700000001
  2.0094842354536193 -4.0661206700000001 -4.0661206700000001
  6.1227571045463804 -4.0661206700000001 -4.0661206700000001
  4.0661206700000001 -6.1227571045463804 -4.0661206700000001
  4.0661206700000001 -2.0094842354536193 -4.0661206700000001
  4.0661206700000001 -4.0661206700000001 -6.1227571045463804
  4.0661206700000001 -4.0661206700000001 -2.0094842354536193
