Ho Tm  O 
 1.0000000000000000
     5.6068030000000002    0.0000000000000000    0.0000000000000000
     0.0000000000000000    5.8777109999999997    0.0000000000000000
     0.0000000000000000    0.0000000000000000    8.3332210000000000
 Ho  Tm  O  
   4   4  12
Cartesian
  0.1017466540410000  5.5621602072539993  6.2499157499999995
  2.7016548459590002  2.6233047072539999  6.2499157499999995
  2.9051481540410000  3.2544062927459998  2.0833052500000000
  5.5050563459589998  0.3155507927460000  2.0833052500000000
  0.0000000000000000  2.9388554999999998  0.0000000000000000
  0.0000000000000000  2.9388554999999998  4.1666105000000000
  2.8034015000000001  0.0000000000000000  0.0000000000000000
  2.8034015000000001  0.0000000000000000  4.1666105000000000
  0.8339110237960000  2.4828509251980000  2.0833052500000000
  1.0233032223330001  1.0922844236850000  4.8187600422390000
  1.0233032223330001  1.0922844236850000  7.6810714577610000
  1.7800982776670002  4.0311399236849992  7.6810714577610000
  1.7800982776670002  4.0311399236849992  4.8187600422390000
  1.9694904762040002  5.4217123029089995  2.0833052500000000
  3.6373125237960000  0.4560045748020000  6.2499157499999995
  3.8267047223330000  1.8465710763150001  0.6521495422390000
  3.8267047223330000  1.8465710763150001  3.5144609577610000
  4.5834997776669999  4.7854265763150003  0.6521495422390000
  4.5834997776669999  4.7854265763150003  3.5144609577610000
  4.7728919762040007  3.3948541970910000  6.2499157499999995
