Mg Mn Cu  O 
 1.0000000000000000
    -3.6784349999999999    3.6784349999999999    3.6784349999999999
     3.6784349999999999   -3.6784349999999999    3.6784349999999999
     3.6784349999999999    3.6784349999999999   -3.6784349999999999
 Mg  Mn  Cu  O  
   1   4   3  12
Cartesian
  0.0000000000000000  0.0000000000000000  0.0000000000000000
  1.8392174999999999 -1.8392174999999999  1.8392174999999999
 -1.8392174999999999  1.8392174999999999  1.8392174999999999
  1.8392174999999999  1.8392174999999999  1.8392174999999999
  1.8392174999999999  1.8392174999999999 -1.8392174999999999
  0.0000000000000000  3.6784349999999999  0.0000000000000000
  0.0000000000000000  0.0000000000000000  3.6784349999999999
  3.6784349999999999  0.0000000000000000  0.0000000000000000
  2.4339983688899998  3.6784349999999999 -1.4231276465399998
  1.2444366311100001 -0.0000000000000001  5.1015626465399997
  2.4339983688900002  3.6784349999999999  1.4231276465399998
  0.0000000000000001  2.2553073534599997  1.2444366311099997
  2.2553073534600001  1.2444366311099999 -0.0000000000000000
 -1.4231276465399998  2.4339983688899998  3.6784349999999999
  0.0000000000000001  5.1015626465399997  1.2444366311100001
  1.4231276465400000  2.4339983688899998  3.6784350000000003
  1.2444366311099999  0.0000000000000001  2.2553073534600001
  3.6784349999999999  1.4231276465400000  2.4339983688900002
  5.1015626465399997  1.2444366311099999 -0.0000000000000000
  3.6784349999999999 -1.4231276465399998  2.4339983688899998
