Ca  Y Ag  O 
 1.0000000000000000
     5.5027612299999999   -0.0147317900000000   -1.8414278799999999
    -0.6380551300000000    5.5997795699999999   -1.9346141900000000
    -0.2060548500000000   -0.1304136800000000    8.8288300700000004
 Ca  Y   Ag  O  
   4   2   2  10
Cartesian
  0.2950957107249557  3.5261942121426229  0.4063066420373691
  1.6037114415691929  5.0713084439287153  4.4002652898049552
  4.7243386018116835  1.9432494419696729  4.5524872810738906
  3.3871738883306786  0.4129122371661094  0.5629657459084659
  1.3954893262629158  1.6057115245312819  3.2868181249305950
  3.8917051504541575  3.8745030990282450  1.5895765466151284
  2.4048948308682019  2.8093582348619033 -1.8700922693878264
  5.4662145722070212 -0.0113360438378120 -1.8173717281611341
  3.4411317220506481  1.9181582113297035  2.4676690286322764
  0.5073061366679902  3.5572614616239888  2.8307953101551897
  2.5180957856632160  4.2073097195191336  0.0010658389618651
  1.2062081921803092  1.2583183524468555  5.3776292861997046
  0.2357159688390643  0.1020796328236427  2.3218708370665291
  3.5055247370180553  5.3808871395386522  3.0472397999232461
  0.5671888852931597  3.9872892840242549  6.3870452591332123
  1.3445636964276013  1.5426111027600153 -0.4348561600652435
  4.0932665676142594  1.6269204699766129 -1.3797723430225477
  3.3361136993412410  3.7766843656685518  5.5133256067930621
