Si  O 
 1.0000000000000000
    -8.9730539999999994    8.9730539999999994    8.9730539999999994
     8.9730539999999994   -8.9730539999999994    8.9730539999999994
     8.9730539999999994    8.9730539999999994   -8.9730539999999994
 Si  O  
  24  48
Cartesian
  9.4262470653239987  3.5072437786560000  1.3273838782200000
  3.5072437786559991  8.5198609346760001 -1.3273838782199998
  5.4658102213439994  0.4531930653239999  7.6456701217799994
  7.6456701217799994  5.4658102213439994  0.4531930653239999
 10.3004378782200003  5.4658102213439994 -0.4531930653240003
  8.5198609346760001 -1.3273838782199996  3.5072437786559996
 -0.4531930653240003 10.3004378782199986  5.4658102213439994
  5.4658102213439994 10.3004378782200003 -0.4531930653240003
 -1.3273838782199996  8.5198609346760001  3.5072437786559996
  7.6456701217799994  0.4531930653240003  5.4658102213439994
  3.5072437786559991 -1.3273838782199991  8.5198609346760001
 10.3004378782199986 -0.4531930653240003  5.4658102213439994
  5.4658102213439994  7.6456701217799994  0.4531930653239999
  3.5072437786560000  1.3273838782199998  9.4262470653240005
  1.3273838782200000  9.4262470653240005  3.5072437786559991
 -0.4531930653240001  5.4658102213439994 10.3004378782199986
  8.5198609346760001  3.5072437786559991 -1.3273838782199998
  0.4531930653239999  5.4658102213439994  7.6456701217799994
  0.4531930653240003  7.6456701217799994  5.4658102213439994
  9.4262470653240005  1.3273838782200000  3.5072437786559991
  1.3273838782199998  3.5072437786560000  9.4262470653240005
 -1.3273838782199996  3.5072437786559996  8.5198609346760001
  3.5072437786560000  9.4262470653239987  1.3273838782200000
  5.4658102213439994 -0.4531930653240001 10.3004378782200003
  9.8564242471379995  2.5694609320619999  2.5694609320619994
  2.5694519590080005  8.0896747798080000 -2.5694519590080005
  6.4035930679380000  0.8833881932459998  6.4035930679379991
  6.4035930679380000  6.4035930679380000  0.8833881932459998
  2.5694519590080005 -2.5694519590080005  8.0896747798080000
  8.0896747798080000 -2.5694519590080001  2.5694519590080001
  8.0896747798080000  2.5694519590080005 -2.5694519590080005
 -2.5694519590080001  2.5694519590080001  8.0896747798080000
 -2.5694519590080001  8.0896747798080000  2.5694519590080001
  2.5694609320619999  2.5694609320620003  9.8564242471379995
  2.5694609320619999  9.8564242471379995  2.5694609320619994
  0.8833881932459998  6.4035930679380000  6.4035930679380009
 10.6696072658879988  4.4831531316959996  0.8340453693000007
  4.4831531316959987  7.2765007341119992 -0.8340453692999996
  4.4899008683039989  1.6965532658880000  8.1390086307000011
  8.1390086306999994  4.4899008683039998  1.6965532658879992
  9.8070993692999995  4.4899008683039998 -1.6965532658880003
  7.2765007341119992 -0.8340453692999994  4.4831531316959987
 -1.6965532658879998  9.8070993692999995  4.4899008683039998
  4.4899008683040007  9.8070993692999977 -1.6965532658880003
 -0.8340453692999994  7.2765007341119992  4.4831531316959987
  8.1390086307000011  1.6965532658879994  4.4899008683039998
  4.4831531316959996 -0.8340453692999996  7.2765007341120000
  9.8070993692999995 -1.6965532658879998  4.4899008683039998
  4.4899008683039989  8.1390086307000011  1.6965532658879992
  4.4831531316959996  0.8340453693000001 10.6696072658879988
  0.8340453693000003 10.6696072658879988  4.4831531316960005
 -1.6965532658880000  4.4899008683039998  9.8070993692999995
  7.2765007341119992  4.4831531316959996 -0.8340453692999996
  1.6965532658879998  4.4899008683039989  8.1390086307000011
  1.6965532658879998  8.1390086306999994  4.4899008683039980
 10.6696072658879988  0.8340453693000003  4.4831531316960005
  0.8340453693000005  4.4831531316959996 10.6696072658879988
 -0.8340453692999992  4.4831531316959987  7.2765007341119983
  4.4831531316959996 10.6696072658879988  0.8340453693000007
  4.4899008683040007 -1.6965532658880005  9.8070993692999995
  8.9730539999999994  2.6265385285559990 -0.0000000000000000
  2.6265385285559995  8.9730539999999994 -0.0000000000000000
  6.3465154714439995 -0.0000000000000005  8.9730539999999994
  8.9730539999999994  6.3465154714439995 -0.0000000000000008
  8.9730539999999994  0.0000000000000000  2.6265385285559990
 -0.0000000000000009  8.9730540000000012  6.3465154714439995
  6.3465154714439995  8.9730539999999994 -0.0000000000000008
  0.0000000000000000  8.9730539999999994  2.6265385285559990
  8.9730539999999994  0.0000000000000000  6.3465154714439995
  2.6265385285559995  0.0000000000000003  8.9730539999999994
 -0.0000000000000005  6.3465154714439995  8.9730539999999994
  0.0000000000000003  2.6265385285559995  8.9730539999999994
