Ba Ca Mo  O 
 1.0000000000000000
     2.9201899999999998   -5.0579169999999998    0.0000000000000000
     2.9201899999999998    5.0579169999999998    0.0000000000000000
     0.0000000000000000    0.0000000000000000    7.5798870000000003
 Ba  Ca  Mo  O  
   1   1   4   8
Cartesian
  0.0000000000000000  0.0000000000000000  0.0000000000000000
  0.0000000000000000  0.0000000000000000  3.7899435000000001
  2.9201899999999998  1.6859757052780000  5.5349168661570003
  2.9201899999999998 -1.6859757052780002  5.5349168661570003
  2.9201899999999998  1.6859757052780000  2.0449701338430000
  2.9201899999999998 -1.6859757052780002  2.0449701338430000
  1.7804398429999999 -0.0000000000000000  5.3135386864349998
  2.0299700784999999 -3.5160110025500000  5.3135386864349998
  2.0299700784999999  3.5160110025500000  5.3135386864349998
  4.0599401569999998  0.0000000000000001  2.2663483135650000
  0.8902199215000000  1.5419059974500000  2.2663483135650000
  0.8902199215000000 -1.5419059974500000  2.2663483135650000
  2.9201899999999998  1.6859757052780000  0.0000000000000000
  2.9201899999999998 -1.6859757052780002  0.0000000000000000
