Li Mn  O 
 1.0000000000000000
     2.8807870000000002    0.0000200000000000    0.0000320000000000
    -1.4403060000000001   12.1625549999999993    0.1179400000000000
     0.0000570000000000   -0.1917250000000000    5.2029649999999998
 Li  Mn  O  
   6   4  10
Cartesian
  1.4404532306650002  9.6725133804149994  1.6551242628080001
 -0.0000529238109998  9.5768762700100005  4.2568064419249998
  0.0002665784800001 11.9520491167799996  2.7327699484069998
 -0.0000779736899999  7.3930170074449997  0.5778166962279999
  0.0001693821530000  2.2790909241750001  3.6449473205709997
  1.4405637121980002  4.7115706997849989  4.7507411909949999
  1.4402505062150002  7.2907689432449994  3.3211783210159997
  0.0002819360589999  4.8036917872100000  2.1966849124489998
  1.4405516363349999 11.8628139814249991  5.1923293997920004
  1.4403567066159999  2.3785751280899996  0.9959853894910000
  0.0002170512680001 11.0490535103449989  0.8138627043030000
 -0.0001379161279999  8.2961861483549981  2.4966371400949998
 -0.0001305106330000  1.1974746365050000  1.6054764138239999
  1.4405718157370004  5.9845429987599994  1.5870249139680002
  1.4406935934110001  3.6428240797149996  2.8794120392170002
  0.0000818821990000  3.5392709429350000  0.3129703318280000
 -0.0000864874670000  6.1095921951949999  3.9683983795460001
  1.4405300644230004  0.8815246182349999  4.4271540131209992
  1.4403062483190003  8.2363346539949998  4.8683534773200003
  1.4406889081279999 10.9174187396499995  3.6451506940509999
