Li Fe  P  O 
 1.0000000000000000
     9.7643489999999993    0.0000000000000000    0.0000000000000000
     0.0032050000000000    9.8060600000000004    0.0000000000000000
     2.2273760000000000    0.0065740000000000   10.8691350000000000
 Li  Fe  P   O  
  10   8  16  56
Cartesian
  2.4111263698809999  2.8134641366120001  5.9624596486799994
  3.0455913152580001  8.7426113087640012 10.5851897172600005
  4.0518643352949999  3.8393906321540001  0.2990207729850000
  4.7834645278900005  7.7874398927060007  4.9392501489150007
  7.8985378406759992  5.9383352269080012 10.5238443193200002
  8.4584564994240008  4.0412357420280003  0.5051104417200000
  8.4220465173169998  8.9390817534460005 10.3519706875650002
  8.9617112352560007  1.0396744151560000  0.3350302172400000
  9.2345880737349990  4.0508304296660000  5.9760569365649996
  9.6683296357589992  7.0324031181960009  4.9399566426900003
  2.7810945067880000  0.7736714041480000  3.5874884363700001
  2.8348785066279998  7.7833830012680005  1.9283149786199998
  4.3260416490060001  2.8436399428920001  8.9336463922800000
  4.3531689032609995  5.6645794075979996  7.2812009290949993
  7.5915743186990001  4.1178520717600007  3.5395338127499998
  7.7407490181699998  7.0148513939840011  1.8937946058599999
  9.0935986492419989  2.1000410163079999  8.9733622115700005
  9.2126612213049981  9.1286353833560021  7.2594300516899999
  0.7855356170490000  5.3890948164779999  2.7205118830949999
  1.4285426724299999  2.8349523789420004  1.2659607608549999
  2.2845958531110000  0.7273843855140001  8.2852264055850000
  2.4899221538420000  8.3708687891860016  6.2487635337149996
  4.6349050427089997  3.4760714440000000  4.6201432144499996
  4.8183721424160000  5.6266690730040008  2.5955059614600002
  5.6798245614470000  9.2852759145880004  2.6363304325199999
  5.6819504124310001  7.7493730209260008  9.5927616078150013
  6.2716181373549995  2.0174160510920003  1.2737321923800000
  6.2840610895470004  0.5096709100619999  8.0917775408550003
  7.1796154615909993  4.1864337921820001  8.2381847893050004
  7.3521439407459992  6.3746042860280001  6.2556436961699999
  9.5259568997579986  1.4439811747019999  4.6524571528049998
  9.7140240462239991  9.0844765534200000  2.6352217807499998
 10.5770931598060010  6.9586717221800001  9.5774469966000009
 11.2290580174889989  4.4077666443240009  8.2548471732599999
  0.9740510407470000  5.6246081109000006  4.1815736171999998
  1.3026503754650001  1.5606193772080001  4.7578768931700006
  1.5031895413470000  9.0012721127220008  2.8945919492550001
  1.5677671756039999  4.0328204356719999  2.3343423856799999
  1.4047923645250000  6.4589108850079997  1.7873422976700000
  2.1531657031779998  1.6773359736980000  1.9448904094950001
  4.4053569393279997  3.3152196910880001 10.8410056786200002
  2.2332154415960002  7.2597032586519994  9.8939344695300004
  2.8097113354230001  9.1969478759039998  7.5894387285600002
  2.6270440206550001  0.6269324029040001  9.7465272606599989
  3.0300679667029997  4.5534584459440000  8.4384268634099993
  3.2027585303939996  7.0298440140660006  6.4482121609649994
  3.0760319440479997  1.9138813297940003  7.6739462531850000
  3.1263604003820000  9.1082296218940009  5.0717666428349997
  3.9961056552219998  4.2067706890760004  5.8048137146399998
  4.0393273991129997  6.8216802924180007  3.2045144646449999
  3.9239591884679998  2.1336073108500000  4.4340092775750000
  4.0970068927599996  9.4528056437180012  2.4305233612950001
  4.2565985056019997  4.3029717618059999  3.2815983700649998
  4.4975824935770001  5.5326153376720004  1.1300422276800000
  4.8572747112009997  2.3429320862840002  0.9720919578600000
  2.6942859420240000  8.1977825819220005  0.0239447044050000
  4.9692345114170005  6.5752761130300001  8.9155710207749994
  5.5302365443000001  8.9412722322680001  8.5422923174700003
  5.6358562549819995  4.0679725767699999  7.9559350916250002
  5.7272057938350001  1.5518520172140000  9.1179108379349998
  5.8308224613619997  6.4640011481979993  6.0852700050450004
  6.0407883576490002  8.7948218135600005  3.9915811374000003
  5.9876682588890002  0.7587784370499999  6.6719641740749998
  6.1577964190620005  3.4024524060540000  4.6443922546350001
  6.2397271084599994  8.4714808862300011  1.4529316211249999
  6.3438730173900000  5.6945703660839992  2.9103848024099999
  6.3146991475519991  0.9585771255160001  2.4894014655899999
  7.1329946815119998  3.1987554135320004  1.8304492870800000
  7.0364862658220000  1.3813184457220002  0.0608997634050000
  7.1357563040109993  7.5389854222040009  9.9031514960100004
  7.4861894858189997  4.2264308669280002  9.7105069472699999
  7.5904071103269999  5.6340023610200003  7.6674139030499999
  7.8189357057680002  0.2826602172340000  8.4802186874849994
  8.0745842501100000  7.7057019878999995  6.4073550825000005
  8.0591654871809997  3.1704776816940003  7.5098223146849996
  8.0618977335960000  5.5077119704739994  5.1899141402850004
  8.9191700398699982  0.6442849930840000  5.7837493310100001
  8.9655665475269988  7.9395219739260003  3.3177925896149998
  8.9072992425769986  2.8418553258640000  4.4428241460600004
  9.0280033265239990  5.1530921168859996  2.3309838229650000
  9.3699951827960000  9.1637376929620000  1.1740078787549999
  9.2392276325299996  0.6730052706580001  3.2679902130450000
  9.7349105024149978  2.6273675172640005  0.9735049454100001
  9.8153420467609998  6.2986568880879998 10.7799211399200008
  9.7348758188089999  8.1274370072019995  8.9947852766549996
 10.6465169422749995  3.5673512401880001  9.3949759582199999
 10.5657282194370001  5.8716790620720003  8.3602995210300008
 10.5320536746759981  0.8227082547079999  7.9757930012699996
 10.7244572964499998  8.2386688869280000  6.1766250847200004
 10.8835919659919984  3.9375971571660000  6.8633044266150005
