Si  O 
 1.0000000000000000
    18.5817349999999983    0.0000000000000000    0.0000000000000000
     0.0000000000000000   18.5817349999999983    0.0000000000000000
     0.0000000000000000    0.0000000000000000    9.3917400000000004
 Si  O  
  48  96
Cartesian
  5.6619661449099992  5.8671084993099996  3.1674676241399999
 15.1579759993099987  3.6289013550899996  3.1674676241399999
  3.4237590006899996 14.9528336449099992  3.1674676241399999
  3.6289013550899996 15.1579759993099987  6.2242723758600000
 14.9528336449099992  3.4237590006899996  6.2242723758600000
 12.9197688550899983 12.7146265006899988  3.1674676241399999
  5.8671084993099996  5.6619661449099992  6.2242723758600000
 12.7146265006899988 12.9197688550899983  6.2242723758600000
  3.6289013550899996  3.4237590006899996  6.2242723758600000
 12.7146265006899988  5.6619661449099992  6.2242723758600000
  5.8671084993099996 12.9197688550899983  6.2242723758600000
  5.6619661449099992 12.7146265006899988  3.1674676241399999
 12.9197688550899983  5.8671084993099996  3.1674676241399999
 14.9528336449099992 15.1579759993099987  6.2242723758600000
  3.4237590006899996  3.6289013550899996  3.1674676241399999
 15.1579759993099987 14.9528336449099992  3.1674676241399999
  7.7255793070699994  3.7772765090649996  7.8839149264800001
 13.0681440090649978  1.5652881929299998  7.8839149264800001
  5.5135909909349996 17.0164468070699968  7.8839149264800001
  1.5652881929299998 13.0681440090649978  1.5078250735200001
 17.0164468070699968  5.5135909909349996  1.5078250735200001
 10.8561556929299989 14.8044584909349997  7.8839149264800001
  3.7772765090649996  7.7255793070699994  1.5078250735200001
 14.8044584909349997 10.8561556929299989  1.5078250735200001
  1.5652881929299998  5.5135909909349996  1.5078250735200001
 14.8044584909349997  7.7255793070699994  1.5078250735200001
  3.7772765090649996 10.8561556929299989  1.5078250735200001
  7.7255793070699994 14.8044584909349997  7.8839149264800001
 10.8561556929299989  3.7772765090649996  7.8839149264800001
 17.0164468070699968 13.0681440090649978  1.5078250735200001
  5.5135909909349996  1.5652881929299998  7.8839149264800001
 13.0681440090649978 17.0164468070699968  7.8839149264800001
 10.8537029039099995  5.8458138309999992  0.8197392424200001
 15.1366813309999984 17.0188995960899980  0.8197392424200001
  3.4450536690000000  1.5628354039099999  0.8197392424200001
 17.0188995960899980 15.1366813309999984  8.5720007575799997
  1.5628354039099999  3.4450536690000000  8.5720007575799997
  7.7280320960899989 12.7359211689999992  0.8197392424200001
  5.8458138309999992 10.8537029039099995  8.5720007575799997
 12.7359211689999992  7.7280320960899989  8.5720007575799997
 17.0188995960899980  3.4450536690000000  8.5720007575799997
 12.7359211689999992 10.8537029039099995  8.5720007575799997
  5.8458138309999992  7.7280320960899989  8.5720007575799997
 10.8537029039099995 12.7359211689999992  0.8197392424200001
  7.7280320960899989  5.8458138309999992  0.8197392424200001
  1.5628354039099999 15.1366813309999984  8.5720007575799997
  3.4450536690000000 17.0188995960899980  0.8197392424200001
 15.1366813309999984  1.5628354039099999  0.8197392424200001
  7.1042804156099990  7.1042804156099990  0.0000000000000000
 16.3951479156100000  2.1865870843899997  0.0000000000000000
  2.1865870843899997 16.3951479156100000  0.0000000000000000
 11.4774545843899975 11.4774545843899975  0.0000000000000000
  2.1865870843899997  2.1865870843899997  0.0000000000000000
 11.4774545843899975  7.1042804156099990  0.0000000000000000
  7.1042804156099990 11.4774545843899975  0.0000000000000000
 16.3951479156100000 16.3951479156100000  0.0000000000000000
  9.2908674999999992  6.1476926978099993  1.0986457452000000
 15.4385601978099984  0.0000000000000000  1.0986457452000000
  3.1431748021899999  0.0000000000000000  1.0986457452000000
  0.0000000000000000 15.4385601978099984  8.2930942548000015
  0.0000000000000000  3.1431748021899999  8.2930942548000015
  9.2908674999999992 12.4340423021899991  1.0986457452000000
  6.1476926978099993  9.2908674999999992  8.2930942548000015
 12.4340423021899991  9.2908674999999992  8.2930942548000015
 11.6519556577749981  2.3610881577749998  7.8765705858000006
 11.6519556577749981 16.2206468422249976  7.8765705858000006
  6.9297793422249994  2.3610881577749998  7.8765705858000006
 16.2206468422249976 11.6519556577749981  1.5151694142000001
  2.3610881577749998  6.9297793422249994  1.5151694142000001
  6.9297793422249994 16.2206468422249976  7.8765705858000006
  2.3610881577749998 11.6519556577749981  1.5151694142000001
 16.2206468422249976  6.9297793422249994  1.5151694142000001
 11.0299506603849995  4.4661200072499998  9.3557790275400006
 13.7569875072499972 16.8426518396149980  9.3557790275400006
  4.8247474927499994  1.7390831603849997  9.3557790275400006
 16.8426518396149980 13.7569875072499972  0.0359609724600000
  1.7390831603849997  4.8247474927499994  0.0359609724600000
  7.5517843396149997 14.1156149927500003  9.3557790275400006
  4.4661200072499998 11.0299506603849995  0.0359609724600000
 14.1156149927500003  7.5517843396149997  0.0359609724600000
 16.8426518396149980  4.8247474927499994  0.0359609724600000
 14.1156149927500003 11.0299506603849995  0.0359609724600000
  4.4661200072499998  7.5517843396149997  0.0359609724600000
 11.0299506603849995 14.1156149927500003  9.3557790275400006
  7.5517843396149997  4.4661200072499998  9.3557790275400006
  1.7390831603849997 13.7569875072499972  0.0359609724600000
  4.8247474927499994 16.8426518396149980  9.3557790275400006
 13.7569875072499972  1.7390831603849997  9.3557790275400006
  9.2908674999999992  3.4905603380149994  7.5629991706800013
 12.7814278380150004  0.0000000000000000  7.5629991706800013
  5.8003071619849997  0.0000000000000000  7.5629991706800013
  0.0000000000000000 12.7814278380150004  1.8287408293200000
  0.0000000000000000  5.8003071619849997  1.8287408293200000
  9.2908674999999992 15.0911746619849971  7.5629991706800013
  3.4905603380149994  9.2908674999999992  1.8287408293200000
 15.0911746619849971  9.2908674999999992  1.8287408293200000
  3.1520940349899997  3.1520940349899997  4.6958700000000002
 12.4429615349899976  6.1387734650099990  4.6958700000000002
  6.1387734650099990 12.4429615349899976  4.6958700000000002
 15.4296409650099999 15.4296409650099999  4.6958700000000002
  6.1387734650099990  6.1387734650099990  4.6958700000000002
 15.4296409650099999  3.1520940349899997  4.6958700000000002
  3.1520940349899997 15.4296409650099999  4.6958700000000002
 12.4429615349899976 12.4429615349899976  4.6958700000000002
  2.1554069330599996  4.5195239136399996  2.6614312812000005
 13.8103914136399979  7.1354605669400000  2.6614312812000005
  4.7713435863599996 11.4462744330599993  2.6614312812000005
  7.1354605669400000 13.8103914136399979  6.7303087188000008
 11.4462744330599993  4.7713435863599996  6.7303087188000008
 16.4263280669399983 14.0622110863599996  2.6614312812000005
  4.5195239136399996  2.1554069330599996  6.7303087188000008
 14.0622110863599996 16.4263280669399983  6.7303087188000008
  7.1354605669400000  4.7713435863599996  6.7303087188000008
 14.0622110863599996  2.1554069330599996  6.7303087188000008
  4.5195239136399996 16.4263280669399983  6.7303087188000008
  2.1554069330599996 14.0622110863599996  2.6614312812000005
 16.4263280669399983  4.5195239136399996  2.6614312812000005
 11.4462744330599993 13.8103914136399979  6.7303087188000008
  4.7713435863599996  7.1354605669400000  2.6614312812000005
 13.8103914136399979 11.4462744330599993  2.6614312812000005
  3.6141102940299996  2.3121624495199997  2.2456307761800001
 11.6030299495199980  5.6767572059699996  2.2456307761800001
  6.9787050504799994 12.9049777940299979  2.2456307761800001
  5.6767572059699996 11.6030299495199980  7.1461092238200008
 12.9049777940299979  6.9787050504799994  7.1461092238200008
 14.9676247059699996 16.2695725504799995  2.2456307761800001
  2.3121624495199997  3.6141102940299996  7.1461092238200008
 16.2695725504799995 14.9676247059699996  7.1461092238200008
  5.6767572059699996  6.9787050504799994  7.1461092238200008
 16.2695725504799995  3.6141102940299996  7.1461092238200008
  2.3121624495199997 14.9676247059699996  7.1461092238200008
  3.6141102940299996 16.2695725504799995  2.2456307761800001
 14.9676247059699996  2.3121624495199997  2.2456307761800001
 12.9049777940299979 11.6030299495199980  7.1461092238200008
  6.9787050504799994  5.6767572059699996  2.2456307761800001
 11.6030299495199980 12.9049777940299979  2.2456307761800001
  4.7964846738149998  4.4943828261849994  3.0843601168800001
 13.7852503261849986  4.4943828261849994  3.0843601168800001
  4.7964846738149998 14.0873521738149989  3.0843601168800001
  4.4943828261849994 13.7852503261849986  6.3073798831200003
 14.0873521738149989  4.7964846738149998  6.3073798831200003
 13.7852503261849986 14.0873521738149989  3.0843601168800001
  4.4943828261849994  4.7964846738149998  6.3073798831200003
 14.0873521738149989 13.7852503261849986  6.3073798831200003
