Li Mn  P  O 
 1.0000000000000000
     5.0867129999999996    0.0000000000000000    0.0000000000000000
     0.0000000000000000   12.8784100000000006    0.0000000000000000
     0.0000000000000000    6.2486059999999997   11.6059129999999993
 Li  Mn  P   O  
  16   8   8  40
Cartesian
  3.6922771051709997 12.8358779526780005  4.1864617255339995
  3.8339624090729996  4.9085077256980005  0.9854348610039999
  1.0721875395659999  3.2340270134079998  1.6600865836940000
  3.7306258344779999 11.1697357536460000  6.7373021319779989
  1.1872693344779999 14.3964852463540005  4.8686108680219995
  3.6155440395659997  9.4537839865920006  9.9458264163059997
  3.9377923948289997  6.3966729526780002  4.1864617255339995
  3.7961070909269998 11.3477127256980008  0.9854348610039999
  1.2906059090729998  7.7793032743020003 10.6204781389959990
  1.1489206051709999 12.7303430473220001  7.4194512744659997
  1.4711689604339997  9.6732320134080005  1.6600865836940000
  3.8994436655219995  4.7305307536459997  6.7373021319779989
  1.3560871655219999  7.9572802463540002  4.8686108680219995
  4.0145254604339993 15.8929889865920000  9.9458264163059997
  1.2527505909269998 14.2185082743019997 10.6204781389959990
  1.3944358948289999  6.2911380473219998  7.4194512744659997
  3.6863561712389998  2.0077433964439999  0.7222823896420000
  1.3504561742309997 11.5606134475580014  5.0509861849039996
  3.9437133287609996  8.4469483964440020  0.7222823896420000
  3.8938126742310000 14.0056075524420010  6.5549268150959987
  1.1929003257689998  5.1214084475580002  5.0509861849039996
  1.1429996712390000 10.6800676035560009 10.8836306103579989
  3.7362568257689994  7.5664025524420007  6.5549268150959987
  1.4003568287610000 17.1192726035559986 10.8836306103579989
  1.1749594890180000 12.9714710931779997  1.8937136123839999
  1.1870709526709999  9.4686748237099998  7.7091116511199997
  1.3683970109819998  6.5322660931780003  1.8937136123839999
  3.7304274526709995  3.2191361762900002  3.8968013488800000
  1.3562855473289999 15.9078798237099992  7.7091116511199997
  3.7183159890180000 12.5947499068219990  9.7121993876159998
  3.8996420473289999  9.6583411762900013  3.8968013488800000
  3.9117535109819994  6.1555449068219996  9.7121993876159998
  4.7390514265889996 13.0808677544539993  1.5917393620369997
  0.0540921060420000  9.0497177920039995 11.5165358639870004
  1.9017795627359997  1.3723230062099998  1.4033289703949998
  3.1494180070979998 10.8569779511039997  4.5325036275419999
  1.4310398815769998 12.8802081560100010  3.4232800984799998
  0.7452238013519999  5.2873663934700001  1.1915790877099999
  4.1063660636489994  3.1991649567039997  2.3937079503369998
  4.7407351285920001  9.2803972677840001  7.4833650373569993
  4.9783100592569998 12.4252416275699993  5.7286786567999997
  2.8910180734109998  6.6416627544540008  1.5917393620369997
  2.4892643939579999 15.4889227920040007 11.5165358639870004
  1.6800039626489998 10.7851045987900012  7.0406690918849995
  4.2233604626489996 14.7811164012099994  4.5652439081149998
  0.6415769372639999  7.8115280062100005  1.4033289703949998
  2.4349535592569995 13.1409793724299995  5.8772343431999996
  2.1973786285919998  3.4074137322159999  4.1225479626429999
  4.4806514929020000  4.4177729511039994  4.5325036275419999
  1.1123166184230000  6.4410031560099998  3.4232800984799998
  1.5630095636490000  9.4886460432960007  9.2122050496629999
  3.2885803013519994  7.4004446065299998 10.4143339122899992
  1.7981326986479997 11.7265713934700013  1.1915790877099999
  3.5237034363509996  9.6383699567039987  2.3937079503369998
  3.9743963815769998 12.6860128439899995  8.1826329015199999
  0.6060615070980000 14.7092430488959991  7.0734093724579994
  2.8893343714079998 15.7196022677839995  7.4833650373569993
  2.6517594407429996  5.9860366275699999  5.7286786567999997
  4.4451360627359993 11.3154879937900006 10.2025840296049992
  0.8633525373509999  4.3458995987900000  7.0406690918849995
  3.4067090373509994  8.3419114012100000  4.5652439081149998
  2.5974486060420001  3.6380932079960000  0.0893771360130000
  2.1956949265889998 12.4853532455459995 10.0141736379629993
  0.1084029407430000  6.7017743724300001  5.8772343431999996
  0.3459778714080000  9.8466187322159993  4.1225479626429999
  0.9803469363510000 15.9278510432960001  9.2122050496629999
  4.3414891986479995 13.8396496065300010 10.4143339122899992
  3.6556731184229996  6.2468078439900001  8.1826329015199999
  1.9372949929020000  8.2700380488959997  7.0734093724579994
  3.1849334372639997 17.7546929937899982 10.2025840296049992
  5.0326208939579997 10.0772982079959998  0.0893771360130000
  0.3476615734110000  6.0461482455460001 10.0141736379629993
