Co  P  O 
 1.0000000000000000
     2.6094103400000002    4.2252265500000004    0.0871989200000000
    -2.6094103400000002    4.2252265500000004    0.0871989200000000
     0.0000000000000000    2.5790024800000002    8.3699552300000004
 Co  P   O  
   2   2   8
Cartesian
  1.0963103799927514  6.1743878328541655  6.3138170783051688
 -1.0963103799927514  4.8848865928541647  2.1288394633051682
  1.5682606505019563  6.2432495245884532  3.2469678553967833
 -1.5682606505019563  7.5327507645884531  7.4319454703967835
  0.6314675169912251  5.4202098556828133  2.3532285710759115
  1.5999773025497612  5.6120485447433621  4.6455111458256715
 -0.3551850550615732  3.3030529369922976  6.7128123748816177
  1.4971614989918047  4.7668436837432457  7.4683977282552307
  0.3551850550615732  2.0135516969922977  2.5278347598816175
 -0.6314675169912252  6.7097110956828141  6.5382061860759118
 -1.4971614989918050  3.4773424437432459  3.2834201132552310
 -1.5999773025497610  4.3225473047433614  0.4605335308256711
