Ho Ta Ti  O 
 1.0000000000000000
    14.6882979999999996    0.0000000000000000    0.0000000000000000
     0.0000000000000000    5.2278849999999997    0.0000000000000000
     0.0000000000000000    0.0324260000000000    5.6318630000000001
 Ho  Ta  Ti  O  
   4   4   4  24
Cartesian
  0.0030551659840000  3.9286656605189996  4.3327836892419995
  7.3472041659839995  1.3478583394810000  4.1150108107580001
 14.6852428340159999  1.3316453394809999  1.2990793107580001
  7.3410938340160001  3.9124526605189995  1.5168521892420002
  4.8709040061640003  4.3450026728830000  4.6467262603139998
 12.2150530061639984  0.9315213271170001  3.8010682396860003
  9.8173939938360011  0.9153083271170001  0.9851367396860000
  2.4732449938359999  4.3287896728829995  1.8307947603139998
  2.4221150284979998  1.7041268862900001  3.8523632478900001
  9.7662493401999999  3.5723971137099997  4.5954312521100000
 12.2661829715019994  3.5561841137100001  1.7794997521099998
  4.9220339715019996  1.6879138862900001  1.0364317478900000
  3.8110992405699999  0.8168039793150000  4.8276892822300006
  3.5018224378820002  3.4469827136729991  3.5834586852290005
 11.1552482405699998  4.4597200206849994  3.6201052177699999
 10.8459714378819996  1.8295412863270000  4.8643358147709996
 10.8771987594299997  4.4435070206849989  0.8041737177700000
 11.1864755621179999  1.8133282863269999  2.0484043147710000
  3.5330497594299999  0.8005909793150000  2.0117577822300001
  3.8423265621180001  3.4307697136729995  0.7675271852290000
 13.3329059254539981  5.0591582960369994  2.4358201705410001
  8.6953842862120005  2.4429645019869999  0.3613797531210000
  5.9887569254540001  0.1849397039630000  0.3801113294590000
  1.3512352862120001  2.8011334980129998  2.4545517468790004
  1.3553920745460000  0.2011527039630000  3.1960428294590000
  5.9929137137880000  2.8173464980129994  5.2704832468790004
  8.6995410745460013  5.0753712960369990  5.2517516705410001
 13.3370627137879989  2.4591775019869999  3.1773112531209997
  1.2611519545780001  2.2156358597199999  5.1057906771699999
  6.1041775711380000  4.8212231607329992  3.3268428476340000
  8.6053009545779986  3.0608881402799999  3.3420038228300002
 13.4483265711379989  0.4553008392669999  5.1209516523660001
 13.4271460454220009  3.0446751402799999  0.5260723228300000
  8.5841204288620006  0.4390878392670000  2.3050201523660001
  6.0829970454219993  2.1994228597199998  2.2898591771699999
  1.2399714288619998  4.8050101607329987  0.5109113476339999
