Ba Sr Bi Sb  O 
 1.0000000000000000
     5.1905330000000003   -3.0574110000000001    0.0000000000000000
     5.1905330000000003    3.0574110000000001    0.0000000000000000
     3.3896080000000000    0.0000000000000000    4.9799550000000004
 Ba  Sr  Bi  Sb  O  
   1   1   1   1   6
Cartesian
 10.3247418502619990 -0.0000000000000000  3.7337860006649999
  3.5838041378260002 -0.0000000000000000  1.2960283087950002
  0.0099011146060000 -0.0000000000000000  0.0035805876450000
  6.8927593932860001  0.0000000000000000  2.4926616957449999
  7.8430371974480009 -1.6345286095320004  3.2230119361350003
  7.5471434190230005  1.1321929248210001  4.0412235225900002
  8.5099395351230012  0.5023356847110001  1.3788798201300001
  5.9154124625920002  1.5647768349780000  1.6289881000949999
  6.1315018514919997 -1.1979242039100000  1.0314532595550001
  5.2097920383420000 -0.3668526310680000  3.5801842686450001
