Eu Cr Sn Bi  O 
 1.0000000000000000
     0.0000000000000000   -4.0116534699999997   -4.0116534699999997
     4.0116534699999997   -0.0000000000000000   -4.0116534699999997
     4.0116534699999997   -4.0116534699999997    0.0000000000000000
 Eu  Cr  Sn  Bi  O  
   1   1   1   1   6
Cartesian
  2.0058267349999999 -2.0058267349999999 -2.0058267349999999
  0.0000000000000000  0.0000000000000000  0.0000000000000000
  4.0116534699999997 -4.0116534699999997 -4.0116534699999997
  6.0174802050000000 -6.0174802050000000 -6.0174802050000000
  1.9764074347438936 -4.0116534699999997 -4.0116534699999997
  6.0468995052561052 -4.0116534699999997 -4.0116534699999997
  4.0116534699999997 -6.0468995052561052 -4.0116534699999997
  4.0116534699999997 -1.9764074347438936 -4.0116534699999997
  4.0116534699999997 -4.0116534699999997 -6.0468995052561052
  4.0116534699999997 -4.0116534699999997 -1.9764074347438936
