Li Cu Si  O 
 1.0000000000000000
     3.1736819999999999    7.7522830000000003    0.0000000000000000
    -3.1736819999999999    7.7522830000000003    0.0000000000000000
     0.0000000000000000    0.0896570000000000    7.8110670000000004
 Li  Cu  Si  O  
  14   2   4  16
Cartesian
 -1.5408226109999998  9.1208352881449990  4.8894233103870004
  1.5408226110000001  9.1208352881450008  4.8894233103870004
  0.0000000000000000  1.1557631615659998  2.3103886415280002
  0.0000000000000001 10.1250769058190002  6.6653006371050010
  1.6138109496359998 10.6273232738689991  1.2344063512110002
 -1.6138109496360000 10.6273232738689991  1.2344063512110002
 -1.6138109496359998  4.9668997261309995  6.5766606487890007
  1.6138109496359998  4.9668997261310004  6.5766606487890007
  0.0000000000000001  5.4691460941809993  1.1457663628950001
  0.0000000000000001 14.4384598384339995  5.5006783584720003
  1.5408226109999998  6.4733877118549996  2.9216436896130000
 -1.5408226109999998  6.4733877118549996  2.9216436896130000
  0.0000000000000000  0.0000000000000000  0.0000000000000000
  0.0000000000000000  7.7522830000000003  0.0000000000000000
  0.0000000000000000  4.2018591168459993  4.6748611109640006
 -0.0000000000000000 11.3923638831539993  3.1362058890359998
 -0.0000000000000001  8.9045427519449998  2.2496575956030003
  0.0000000000000000  2.3221023948940003  6.6444216550140007
  0.0000000000000002 13.2721206051060001  1.1666453449859999
 -0.0000000000000001  6.6896802480549997  5.5614094043970006
  0.0000000000000001  8.3182764470289996  5.7583264034670005
 -0.0000000000000000  0.8187186016700000  5.9596566553920001
 -1.3608748415999998  9.4847543580600000  3.0060735128160005
  1.3608748415999998  9.4847543580600000  3.0060735128160005
  0.0000000000000001  9.5667367689299994  0.7213989038520000
  0.0000000000000000  2.0585103611990005  0.4687343196030000
 -1.8149303516579998 10.8535904482050007  6.0905857604460003
  1.8149303516579998 10.8535904482050007  6.0905857604460003
 -1.8149303516580000  4.7406325517950005  1.7204812395540001
  1.8149303516580000  4.7406325517950005  1.7204812395540001
  0.0000000000000002 13.5357126388009998  7.3423326803970008
  0.0000000000000001  6.0274862310700001  7.0896680961480003
  1.3608748416000001  6.1094686419399995  4.8049934871840003
 -1.3608748416000001  6.1094686419400004  4.8049934871840003
  0.0000000000000002 14.7755043983299998  1.8514103446080001
 -0.0000000000000001  7.2759465529709999  2.0527405965330003
