Ca La Ga  O 
 1.0000000000000000
     5.3924849999999998    0.0000000000000000    0.0000000000000000
     0.0000000000000000    6.8931930000000001    0.0000000000000000
     0.0000000000000000    0.0000000000000000   11.9055520000000001
 Ca  La  Ga  O  
   4   4   4  16
Cartesian
  0.0000000000000000  0.0000000000000000  0.0000000000000000
  2.6962424999999999  0.0000000000000000  5.9527760000000001
  0.0000000000000000  3.4465965000000001  0.0000000000000000
  2.6962424999999999  3.4465965000000001  5.9527760000000001
  2.7345884608350000  5.1698947500000001  9.2794134342879993
  5.3541390391650001  5.1698947500000001  3.3266374342879996
  0.0383459608350000  1.7232982500000000  8.5789145657120010
  2.6578965391649998  1.7232982500000000  2.6261385657120000
  2.3356632055050000  5.1698947500000001  1.0715830188640001
  3.0568217944949998  1.7232982500000000 10.8339689811360014
  5.0319057055049994  1.7232982500000000  4.8811929811360004
  0.3605792944950000  5.1698947500000001  7.0243590188639997
  1.4594868502200000  6.6116887842659997  1.9361046773439998
  1.4594868502200000  3.7281007157340005  1.9361046773439998
  3.9000878138249999  1.7232982500000000  0.6019328035680001
  3.9116115542699998  5.1698947500000001  7.0479677284800006
  1.2367556497799999  3.7281007157340005  7.8888806773440008
  1.2038453138250000  5.1698947500000001  5.3508431964319998
  4.1557293502199997  0.2815042157340000  4.0166713226560002
  1.4808734457299997  1.7232982500000000  4.8575842715199995
  1.2367556497799999  6.6116887842659997  7.8888806773440008
  4.1771159457299998  5.1698947500000001  1.0951917284800001
  1.2153690542700000  1.7232982500000000 10.8103602715200005
  3.9329981497800000  0.2815042157340000  9.9694473226560003
  4.1557293502199997  3.1650922842660001  4.0166713226560002
  3.9329981497800000  3.1650922842660001  9.9694473226560003
  1.4923971861749998  5.1698947500000001 11.3036191964320007
  4.1886396861749997  1.7232982500000000  6.5547088035680003
