Fe  P  O 
 1.0000000000000000
     5.2867540000000002    0.0000000000000000    0.0000000000000000
     0.0000000000000000    7.4038849999999998    0.0000000000000000
     0.0000000000000000    0.0000000000000000   10.3430830000000000
 Fe  P   O  
   4   4  16
Cartesian
  5.2588875196659997  7.2124723610950001  3.3965443402040001
  2.6155105196660000  3.5105298610949998  1.7749971597959999
  2.6155105196660000  0.1914126389050000  6.9465386597959995
  5.2588875196659997  3.8933551389050001  8.5680858402040005
  5.2644438981200006  5.8648542328199991  6.1778510743189994
  5.2644438981200006  5.2409732671800002  1.0063095743190000
  2.6210668981200000  2.1629117328200000  9.3367734256810007
  2.6210668981200000  1.5390307671799999  4.1652319256809998
  4.3948521664299998  4.1036254729049997  1.6023814476090001
  4.8953438808560001  4.5092843320549996  6.8159158645889999
  5.0428443174560007  5.3196765647299999  9.8188334950620000
  1.4606772626600000  6.1798080968350000  6.4941322093759997
  1.7514751664300001  0.4016829729050000  3.5691600523910001
  2.2519668808560001  2.8946006679449998  3.5271671354110001
  4.1040542626600001  1.2240769031650001  3.8489507906240004
  1.7514751664300001  3.3002595270950001  8.7407015523910001
  4.1040542626600001  2.4778655968350001  9.0204922906240004
  4.8953438808560001  6.5965431679449997  1.6443743645890001
  2.2519668808560001  0.8073418320550000  8.6987086354110001
  2.3994673174560002  1.6177340647300000  5.6957910049380001
  5.0428443174560007  5.7861509352700002  4.6472919950620000
  1.4606772626600000  4.9260194031649993  1.3225907093760001
  2.3994673174560002  2.0842084352699999  0.5242495049380000
  4.3948521664299998  7.0022020270949996  6.7739229476089999
