Na Ta Zn  P  S  O 
 1.0000000000000000
     8.9601878900000003   -0.0025155200000000    0.0038432900000000
    -4.4822625100000000    7.7610049500000002   -0.0171675300000000
     0.0087728400000000   -0.0466888600000000   22.0861297000000008
 Na  Ta  Zn  P   S   O  
  15   4   8  15   3  72
Cartesian
  5.9929197516899215  4.9757725963579587  5.3565176576143152
  2.9978711507218718  4.9268727039525171 16.4708317570519505
  3.1567160506052732  0.0912067082256660 16.4714377579678768
  1.1654239464656178  2.5581840925814041 12.9272463934919628
 -2.8219420100672967  5.5366754775000198 12.8554699985456828
  1.6673141681054024  7.3676619024638050 12.9124429389151310
 -1.6450618075239696  7.3952198093227457  1.8770199413525241
  2.8264072453917550  5.5381840106218503  1.7473713222961502
 -1.1632530892961199  2.5936859200603659  1.8895702465325244
  4.5008846541531202  7.6851842484631820 10.7938046588846834
  4.4723176159711677  7.6688829025613048 21.8218226103731681
  4.6362044292648106  2.5568060047044119 18.2139179318085667
  4.4682355464121759  2.3628701762566373  7.1633764052373987
  0.0448133634891844  5.2313281437382706  3.5900984796156088
 -0.0256940456991596  5.0990383093230296 14.6101977940630796
  4.5526987823737617  2.5445353755089659 21.5365274875238732
  4.4263896215440433  2.5737535920707404 10.4879480354917511
 -0.0214722997912974  5.1667107704612860  7.0021748141373195
  0.0033277664288456  5.1162786022564264 18.0519950195426198
  0.0301267325961368  0.1013518923560838  7.7533570578277820
  8.9487150856933244 -0.0361461402017616 18.7711871362065281
 -4.4555684626814118  7.6963483568442124 14.5936052197367463
  0.0139369619336580  0.0482957381097179  3.5156426525528679
  4.4764269044655007  2.5402470980069642 15.1169107175475084
  4.6015581291234762  2.4241035112063671  4.1050516668743491
 -0.0434675399545814  5.2348790978050257  0.1833365769772968
  0.0378772946300942  5.2365454067639039 11.2206110848858138
  2.6463046393942808 -0.0033452248364751  5.5308219027891532
 -1.3146828350765449  2.2917648009294624  5.5223270865441458
  1.2962838098425822  2.2627405263574492 16.5454403443004487
 -3.1284208859106544  5.4090573879033208 16.5464992474089847
  6.3138149970904669 -0.0351100559326699 16.5827721527955951
  3.1833392829175668  0.2776938182677911 12.8951583854560656
  3.1636169097237712  4.8370851007894826 12.9100983880707751
  5.7783961854214905  4.8539999191548686  1.8988388178061431
  5.7866326515199571  0.2775437015794645  1.8172889968395030
  2.6714227298911699  5.1411183658564790 20.3261027579698528
 -1.2593136966408298  2.8162550611996791 20.3513906840688641
 -1.3665836204628934  7.4480597699088751 20.2974885300208641
  1.3830259613630573  7.4627688283153573  9.2608097313264963
  1.2765414315490329  2.8701344062569336  9.3019203109230570
 -2.6686909933074503  5.1763910596139171  9.2699604980771966
  3.1039691690543858  5.4467773953310656  5.5169176786964167
  7.0679395784128962  2.5575877817057617 12.8548759262703527
  1.9194938886541226  2.5855657413018212  1.8393177803453471
  1.7355557563161121  0.0646769394879267  6.7227648501545270
  3.7129497304074430  6.1314435620192187  6.6415570616025326
  7.9385602490745253  1.3962813687851723  6.6874003045380102
  1.0437810438682411  1.3114888649459349 17.6833720006119499
  5.1434195107807987  6.1048963444146054 17.6973119955790104
  7.2066906286687775  0.1143692245863781 17.7733887681029117
  2.5865414963535329  7.3899562689782199 15.2399857520811040
  0.7174669285976664  1.7715601762066528 15.1911670282071345
 -3.1666975036284635  6.2509449369966408 15.2282834536922103
  3.2520264411118243  6.1915572535335537  4.2261919772103971
 -0.7600511769968803  1.7976676601483235  4.1573476468425179
 -2.5970095159538733  7.3844163077262195  4.1952610239860544
  6.2508516927897402  2.7207175023074552 14.0579519251217615
  3.7628427533738518  0.8859008265052297 14.1741234806004108
  3.4452895119100573  4.0408315246746760 14.1840772157085144
  5.4720999201495877  4.0592551283007454  3.1695710340927263
  5.1121881879237874  0.8797237293711169  3.0353985578560794
  2.7481326781706961  2.7594571854281562  3.0297632848407288
  2.8078037271222747  2.4791153968910504  0.6066884504700297
  5.1869072429878500  4.0150703048935759  0.6575421389418576
  5.3802582955245901  1.2056196832372914  0.5662841789212906
  3.6462208083815679  1.2081582246726594 11.6702322603555597
  3.7686924890417490  3.9979329957191250 11.6776890899056944
  6.1708064543208341  2.4689696028766006 11.6352566738339060
  1.8633646445880456  5.2359088419289712 21.6170320122591946
 -0.7926597412611279  3.4389910645508701 21.6629079165083880
 -1.0952627587406445  6.7125797153016853 21.6080871779962358
  1.1293227493060169  6.7585950849837220 10.5919908383636194
  0.8050268286670423  3.4925214151704926 10.6089524095847185
 -1.8598743008769383  5.3026707275754896 10.5563596781391009
 -1.6691227700817319  4.9776888312082175  8.0419370790287754
  0.6714667353890360  6.6537187472226167  8.0955489352187158
  0.9410884780436662  3.8387789104505088  8.1051993626332681
 -0.9208105265959401  3.8052175004559414 19.1640608197776459
 -0.6751503992173857  6.6701181113420427 19.0927256488353407
  1.6760215437798429  4.9548748222822319 19.1000049666855674
 -3.6177963056203217  6.3115526032720757  9.0360072275471683
  2.8462020993189192  7.6741664628092243  9.0190711324559132
  0.7721307910326245  1.4719287520302100  9.1192339379714653
 -0.7496606649146845  1.4313977467042933 20.1342335615191246
 -2.8291852622088398  7.6747551087085357 20.0770620969702769
  3.6010627545965868  6.2968238651442769 20.1262254216302203
  7.8681689347487840  1.3120437940175489 12.8525477511368820
  1.6464832282127906  0.2526842108857956 12.8352474999604063
  3.8677900926767674  6.2063378965592797 12.8592841401008346
  5.0789466188225472  6.2282401509692429  1.8400371965124269
  7.3282418597236889  0.2605306530756528  1.8260956755377560
  1.1145742746196214  1.3360988356225412  1.8395795390100262
  5.2803029890881481  1.0940583016150307 16.4746219484568357
  2.8216050918208402  2.5441462812129476 16.4865934985900289
  5.2654321620879516  3.9921984837105930 16.4095196774855019
  3.6614418286725665  4.0823201707584325  5.4207582950397040
  6.1398749297213602  2.6542870687410738  5.4791592754733127
  3.5775483857405659  1.1950155816190855  5.4135104840520025
  3.5104011140018843  3.7845712831456515 20.3669509164579914
  6.0938424939284674  2.7897048272274243 20.3538210899865213
  3.8819065057809095  1.0843093154373318 20.3503758385881284
  5.0954584659097346  1.1004547959640993  9.3040860599710253
  2.8845494182184317  2.8146094023415906  9.3150550488107591
  5.4748264121765553  3.8075946280733501  9.3256389333321899
  1.0261959681480384  3.7630407292408954  1.7255624177749824
 -1.6465224506298419  4.9850435808699842  1.7699979591011479
  0.7208948925287822  6.6159640678151375  1.6591058096763391
 -0.6913279455746091  6.6237372191915496 12.7475129701732701
  1.6307460729941006  4.9629373900693592 12.7804200984980714
 -1.0117868473236753  3.7483138217337189 12.7525020310534547
 -0.9003120224700945  6.4334810134069746  5.7366481687605635
  1.5936370029081963  5.3046814178254778  5.7112130636864640
 -0.6277544184112894  3.7530511998826905  5.7420042289002478
  0.6607852848599111  3.7160795530837416 16.7890301973283265
 -1.5558667041195375  5.2915050749997459 16.8224818631709745
  0.9146372138060740  6.3861707476221499 16.7736212331909798
