Fe  O 
 1.0000000000000000
    -3.0285810000000000   -3.0292054999999998    4.2811205000000001
    -3.0285810000000000    3.0292055000000002   -4.2811205000000001
     3.0285810000000000   -3.0900935000000000   -4.2811205000000001
 Fe  O  
   6   8
Cartesian
 -1.5142905000000000  1.4841587500000002 -6.4216807500000002
 -1.5142905000000004 -1.5450467500000009 -2.1405602499999996
 -3.0285810000000000  0.0000000000000002  0.0000000000000000
  0.0000000000000000 -0.0304439999999999 -4.2811205000000001
 -3.0285810000000000  1.5271715986645005 -3.1934247768060002
  0.0000000000000006 -4.6172650986645012 -1.0876957231940012
  1.4190325418070000 -1.5828825300475005 -4.2509899739209995
 -1.6095484581930004 -1.5072109699524998 -0.0301305260789996
 -4.4476135418069997 -1.5072109699524994 -0.0301305260790013
 -1.4190325418070000 -1.5828825300475000 -4.2509899739210004
 -3.0285810000000000 -0.0381282002225004 -2.0646388590529994
  0.0000000000000000 -3.0519652997775002 -2.2164816409469998
 -0.0000000000000003 -0.0842866592799998 -2.1735762512960002
 -3.0285810000000000 -3.0058068407199996 -2.1075442487039999
