 V Zn Si  O 
 1.0000000000000000
     3.8817430000000002    8.2484199999999994    0.0000000000000000
    -3.8817430000000002    8.2484199999999994    0.0000000000000000
     0.0000000000000000    5.2432569999999998    8.3505099999999999
 V   Zn  Si  O  
   4   6   8  28
Cartesian
  2.3341075928720003 12.1808627499999993  6.2628824999999999
 -2.3341075928720003  9.5592342499999994  2.0876275000000000
  0.0000000000000000  0.0000000000000000  0.0000000000000000
  0.0000000000000000  2.6216284999999999  4.1752549999999999
 -0.8422256604530002  3.3500300068130002  0.7963797881900000
 -0.8422256604529997 15.7684384931869985  3.3788752118100001
  0.8422256604530002  5.9716585068130001  4.9716347881900003
 -0.8178832501000002 12.1808627499999993  6.2628824999999999
  0.8422256604529997 18.3900669931869984  7.5541302118099996
  0.8178832501000002  9.5592342499999994  2.0876275000000000
  1.6276924747600003  8.9548695084989998  5.9237432373700001
 -1.6276924747600001  6.3332410084989998  1.7484882373699999
  1.1252318973539999  6.7765962703449993  0.8409381095500000
 -1.1252318973540001  9.3982247703449993  5.0161931095500005
  1.6276924747599999 15.4068559915009988  6.6020217626299997
 -1.1252318973540001 14.9635007296549993  7.5095718904499993
  1.1252318973540001 12.3418722296549976  3.3343168904500002
 -1.6276924747599999 12.7852274915009989  2.4267667626300002
  2.1330527141869999 11.1140335406229998  2.7895630200900001
  0.2917595673660001 17.3256302510469986  3.4897699846099997
 -0.7124240562760000  9.5707002002279999  0.7268617924399999
 -0.2917595673660004 19.9472587510469985  7.6650249846100005
 -2.6371707958540003 11.5488991805930006  2.7099826597900001
 -1.7616553074329999  7.8981153714629988  5.2279119400900003
  0.7124240562759997 12.1923287002279999  4.9021167924400002
 -2.6371707958539998  7.5695693194069991  1.4652723402099999
  1.7616553074329999 13.8419816285369990  3.1225980599100001
 -0.1046750817380000 12.2007052126669997  2.2306800868100001
 -0.2917595673660000  4.4144667489529992  4.8607400153899993
  2.6371707958539998 10.1911978194069999  5.6405273402100002
 -1.7616553074330001 16.4636101285369989  7.2978530599099996
 -2.1330527141869999 13.7356620406229997  6.9648180200900001
  0.1046750817380000 14.8223337126669996  6.4059350868099996
  2.6371707958540003 14.1705276805929987  6.8852376597899996
  1.5276677211359999 16.5161734171219976  7.8022656164599997
  0.1046750817380000  9.5393917873330007  6.1198299131900002
  1.5276677211359999  7.8455520828779992  4.7234993835400001
 -0.1046750817380000  6.9177632873329991  1.9445749131899999
  1.7616553074330001  5.2764868714629998  1.0526569400900001
  0.2917595673660000  1.7928382489529997  0.6854850153900000
 -1.5276677211360001 13.8945449171220012  3.6270106164600002
  0.7124240562760000 12.1693967997720005  7.6236482075599996
 -1.5276677211359999  5.2239235828779993  0.5482443835400000
 -0.7124240562760001  9.5477682997720006  3.4483932075599997
  2.1330488324440005  8.0044432077969994  1.3856919799100000
 -2.1330527141870004 10.6260634593770007  5.5609469799099998
