Zr  O 
 1.0000000000000000
     5.8272269600000000    0.0000000000000000    0.0000000000000000
     0.0000000000000000    4.9842833400000002    0.0000000000000000
     0.0000000000000000    0.0000000000000000    5.3866864500000000
 Zr  O  
   4   8
Cartesian
  0.8367864699366327  2.0801679734598033  2.4620723062929897
  2.0768270100633672  4.5723096434598034  5.1554155312929897
  3.7503999499366327  0.4119736965401970  2.4620723062929897
  4.9904404900633672  2.9041153665401969  5.1554155312929897
  2.2284272142984136  1.1102422855168244  1.1874555973576859
  0.6845094332901824  3.6023666600536344  1.0426531162176884
  2.2291040467098178  1.1102249900536345  3.7359963412176884
  0.6851862657015864  3.6023839555168244  3.8807988223576859
  5.1420406942984140  1.3818993844831757  1.1874555973576859
  3.5981229132901822  3.8740583499463659  1.0426531162176884
  5.1427175267098173  1.3819166799463656  3.7359963412176884
  3.5987997457015863  3.8740410544831758  3.8807988223576859
