 V  P  O 
 1.0000000000000000
     3.6749649999999998    7.5259429999999998    0.0000000000000000
    -3.6749649999999998    7.5259429999999998    0.0000000000000000
     0.0000000000000000    4.8838200000000001    8.3144690000000008
 V   P   O  
   2   8  24
Cartesian
 -2.6157739376299998  8.7468979999999998  2.0786172500000002
  2.6157739376299998 11.1888079999999999  6.2358517500000001
  2.4610689360249998 11.2003567195809985  2.8190955446710002
  2.4610689360249998  6.2934392804189994  1.3381389553290002
 -0.5050982144949999 11.2014992147810020  2.9660787276530005
 -2.4610689360249998  8.7353492804190012  5.4953734553290001
 -0.5050982144950000  6.2922967852190004  1.1911557723470001
  0.5050982144949998 13.6434092147810002  7.1233132276530000
  0.5050982144949999  8.7342067852189995  5.3483902723470012
 -2.4610689360249998 13.6422667195810003  6.9763300446710010
 -0.3955511828100002 14.9974348791400001  1.7907453898130004
 -0.9660637743050001 13.3779226619330007  6.5295769963630006
  0.8128177338050000  7.3284506720370004  6.0644323426270006
 -0.8128177338050002 12.6072553279629993  2.2500366573730002
 -2.5907290511549999  8.3554498292369992  4.0451887157560007
 -2.5907290511549999  9.1383461707630005  0.1120457842440000
  0.6017167193099997  8.8992226789059998  0.2627954216830001
 -1.3864613954800002  7.3206701436680000  1.9171253186130002
  0.6017167193100001  8.5945733210939999  3.8944390783170002
  2.5907290511549999 11.5802561707630005  4.2692802842440010
  0.9660637743050000  6.5577833380669999  1.7848920036370002
 -0.6017167193099999 11.3411326789059999  4.4200299216830006
 -0.6017167193100001 11.0364833210939999  8.0516735783170006
 -1.3864613954800000 10.1731258563320015  2.2401091813870004
  0.3955511828100001 17.4393448791399983  5.9479798898130012
  0.9660637743050001 10.9360126619330007  2.3723424963630002
  0.8128177338050002 15.0491653279629993  6.4072711573730006
  2.5907290511549999 10.7973598292369992  8.2024232157560011
 -0.9660637743049999  8.9996933380670008  5.9421265036370006
  1.3864613954799998 12.6150358563319998  6.3973436813870004
 -0.3955511828100000  2.4963611208600001  2.3664891101870005
  0.3955511828100000  4.9382711208599996  6.5237236101870000
 -0.8128177338050000  4.8865406720370004  1.9071978426270002
  1.3864613954800002  9.7625801436680000  6.0743598186130008
