Li  V  P  O 
 1.0000000000000000
     9.8214159999999993    0.0000000000000000    0.0000000000000000
     4.8897110000000001    8.5589919999999999    0.0000000000000000
     0.2013480000000000    0.1092050000000000   13.9286349999999999
 Li  V   P   O  
  14   6  16  58
Cartesian
  2.8164551390589998  0.8323216570740001  7.8253578584300003
  4.2865901335299998  5.7633459667239997  7.8876745714199998
  4.9746158570349994  2.8515166268469998  5.3702548674249995
  4.9554213076959996  2.9200781323649996 12.3475817125149998
  5.6415914914340002  5.7438606738950000  0.8305227191450000
  7.1279060363679996  0.8230205060580000  0.9329121150299999
  7.0512229742410000  6.5940786304999994  6.1264265329400001
  7.8770425566019986  2.0724396988109999  7.8577419348049995
  7.8128693262939999  7.8684861359150000 13.0278283886450001
  9.3176988979239983  2.9581535189279999 13.0730825237600001
  9.9493102970499994  5.8131720942599996  1.5707600262199999
 10.5387821265570008  2.9136206667169997  6.0973017571549999
 10.0191897763890001  0.1242157664920000 13.9098592000199996
 14.2321733873529990  8.4635794999670004  6.7698041122249997
  7.1031669950979994  4.8612145973949996  3.4887191370849999
  7.8437116366540005  3.7971550441200002 10.3873074085199999
  4.4589854529820006  0.0857933013440000 10.4163903983999990
 10.4889430423560004  8.5633709313619999  3.4885380648300002
  2.2101435177920004  3.7563335580859998  3.4362221117700003
 12.6860867194059992  4.9305789666779996 10.5193230110500000
  2.0685224846460000  1.9657802854010000 11.6985630360549990
  2.7072465771959995  0.8021433254600000  4.7371287635000003
  4.2780325632829994  5.8981040223549996  4.8546167997250000
  4.9749725846969994  2.8994541095790001  1.7621255424850002
  5.0088609589079995  2.9677042428369997  8.7324880700750001
  5.7109668835049998  5.9061764876989997 11.7333567662850005
  6.9919137074759998  6.6725690484040001  9.1541774947000008
  7.3391100707730006  0.8976357015949999 11.8132514166449987
  7.5764759814619991  7.7947906847039992  2.1305240096000002
  7.8720969481419996  1.9643064910799999  4.7728417836400006
  9.2223783823909997  2.7668281264879999  2.2015043335600000
  9.8759230323969991  5.6875818808509999  5.1661725074049993
  9.9445120122810007  5.7625375258169997 12.1632222996549988
 10.6835978024189995  2.7862210387039998  9.0984072401600002
 12.2947276042879992  7.9235210653290000  9.2376518042550000
 12.8578895265879982  6.6815466703549999  2.2340276962850001
 11.0696434693540002  2.0638944682450000  7.8245639262349993
  2.0328812141320003  2.1909734179809996  4.7345241087550001
  7.0727093277449997  8.4567054938009996  0.8801365170150000
  3.0360781639019998  0.7750624907790000 11.7171995496849988
  2.9363701069399997  3.2595691238639999 11.5974272173199999
  3.5578102298299998  2.9379514820729997  2.4508408286950001
  3.6079886181060004  4.5096139908290001  4.6768038453149998
  4.0349515208220001  6.7040015033069995  1.1178426019250001
  4.2022990275470002  5.7001680473549996 11.7472854012849997
  4.2313733332689996  1.7115136193220000  9.2089727447899996
  4.2290997780029995  1.0034301149659999  4.6111303312900001
  4.3438466376799996  4.2436104325950001  9.3744031426850007
  4.9138911529480005  3.0692850961690001  0.2746308962950000
  4.9937433464679994  3.0981519226820002  7.2270951279100002
  5.7274139443609995  4.1557825146829996  2.3654025816050002
  5.8173066576299997  1.0457234834000000 11.6680732540399994
  5.7075257832410005  1.6168086262410000  2.2038025583350001
  5.8137203861489999  5.7178382502320000  4.7590245777200000
  6.0500269517750001  6.8281067456519997 10.4460862482200003
  6.1273577758539997  6.5638211191110001  7.9187493561049997
  6.2105126969529998  6.6660074308569994 12.9470144483750005
  6.3840800217559996  4.5237238906880002 11.5395955247999993
  6.5096989484509997  2.8808345055659998  9.2275256866100008
  6.9440390523900000  6.3817692450129995  2.2352812734350000
  6.9879422506350002  3.2381540408420002  4.6205460885500003
  7.0011704096609995  0.7322781030480000  4.7351787545999997
  2.1516985970779996  0.0417366271430000  3.4303860137050002
  7.1863747606580004  8.5642584685329997  5.9619154249549995
  8.0282058762029997  0.1723932192590000  8.1271774502450000
  7.9054545178489999  7.8883367201069996  9.1177819714449999
  7.8038555163960002  5.3661761526619998  9.3965636009700013
  7.9539070484570003  2.3325071740239998 11.6090158416399998
  8.3811424274649990  5.6777321610049993  4.5517804175550003
  8.5438366843590003  4.1589543659550001  2.3485767905249997
  8.7299351104369993  2.0135416862669997  0.9863562875250000
  8.7560483200539991  2.0050124540650001  6.0128942290550000
  8.8640773818890004  1.8943503858480002  3.5038874205999999
  9.1415345048219994  2.9684224420840000  9.1450403101400006
  9.2258162906609993  7.0440623422319995 11.6921419353199987
  9.1066638628829981  7.6545788412159999  2.2693646432799999
  9.2507042536219988  4.4831929519729998 11.5991125821549996
 10.0232041328169998  5.6528373890060006 13.6599516308499993
  9.7387740161430010  5.5278753633609998  6.6404628076150001
 10.6110517359639989  4.4157757474719999  4.5483121874399997
 10.7708217633799990  7.9532690621769992  9.2721948190549988
 10.5590311446620007  6.9212904259029999  4.5884684421450004
 10.7343175135389970  2.9564506147570002  2.2045268473549999
  1.2308053815210001  1.8129940009770000 10.3187367384149997
 10.9015352296430006  1.9132956892910000 12.8261417538449987
 11.4113500074120005  4.1144456092819999  9.3011245939500000
 11.3909806261409994  5.7578427508710002 11.5076571647449999
 11.9824602247119998  5.3902388471210001  2.3437574828150001
 11.9089949850470003  7.8809251154369990  2.1792324461950003
  7.8621277320599994  0.3456997879030000 13.1067758918250004
 12.8285342541519984  8.5674586617760013 10.6341228207200000
 12.8496296856349996  6.4857329787419999  9.2434600450500000
  3.9462092176340002  6.6189703767359997  6.1321651305599998
 13.6611928195910011  6.8278541928510004  3.6324626502849999
