Zn Cu Te  O 
 1.0000000000000000
    -4.8618800000000002    4.8618800000000002    4.8618800000000002
     4.8618800000000002   -4.8618800000000002    4.8618800000000002
     4.8618800000000002    4.8618800000000002   -4.8618800000000002
 Zn  Cu  Te  O  
   6   6   4  24
Cartesian
  2.7774656351200000 -0.0000000000000003  2.4309400000000005
  2.0844143648799998  0.0000000000000004  7.2928200000000007
  0.0000000000000002  7.2928199999999999  2.0844143648799998
  0.0000000000000000  2.4309400000000001  2.7774656351199996
  2.4309400000000001  2.7774656351200000 -0.0000000000000002
  7.2928199999999999  2.0844143648800002 -0.0000000000000002
  2.1274225553599999  4.8618800000000011  2.4309400000000001
  2.7344574446399998  4.8618800000000002 -2.4309399999999997
  4.8618800000000002 -2.4309399999999997  2.7344574446400003
  4.8618800000000011  2.4309399999999997  2.1274225553599999
  2.4309399999999997  2.1274225553600004  4.8618800000000002
 -2.4309400000000001  2.7344574446399998  4.8618799999999993
 -0.0357299561200004  0.0357299561200004  4.8976099561200002
  4.8261500438799994  4.8261500438800002  4.8261500438800002
  4.8976099561200002 -0.0357299561200004  0.0357299561200004
  0.0357299561200002  4.8976099561200002 -0.0357299561200002
  6.0075625744800005  3.4833619923200003  0.7769964903200002
  1.1456825744800001  1.3785180076800001 -0.7769964903200001
  3.7161974255199999  1.3785180076800001  0.7769964903200002
  3.7161974255200003 -1.3785180076800001  4.0848835096800000
 -1.3785180076800001  4.0848835096800000  3.7161974255200003
  1.3785180076800001  0.7769964903200001  3.7161974255199999
  1.3785180076800003 -0.7769964903200003  1.1456825744800001
  3.4833619923200003  0.7769964903199998  6.0075625744799996
 -0.7769964903200002  1.1456825744800001  1.3785180076800001
  0.7769964903199997  6.0075625744800005  3.4833619923200008
  4.0848835096800000  3.7161974255200003 -1.3785180076800003
  0.7769964903200000  3.7161974255200003  1.3785180076800003
 -1.2058629251199997  1.4170727160799996  4.1273860646399996
  3.6560122130000003  3.4448024220399995  5.5963787972400008
  1.2058677869999996  3.4448024220400009  4.1273812027599996
  1.2058629251200004  6.2789624398399999  0.7344939353599997
  6.2789624398399999  0.7344939353599998  1.2058629251200002
  3.4448024220400009  4.1273812027599996  1.2058677870000001
  3.4448024220400004  5.5963787972400008  3.6560122129999990
  1.4170727160799999  4.1273860646399996 -1.2058629251199999
  5.5963787972400008  3.6560122129999999  3.4448024220400000
  4.1273860646399996 -1.2058629251199997  1.4170727160799996
  0.7344939353599996  1.2058629251200004  6.2789624398400008
  4.1273812027599996  1.2058677869999999  3.4448024220400004
