Sr Mn Fe  O 
 1.0000000000000000
     7.8232629999999999    0.0000000000000000    0.0000000000000000
     0.0000000000000000    7.8232629999999999    0.0000000000000000
     0.0000000000000000    0.0000000000000000    7.8232629999999999
 Sr  Mn  Fe  O  
   8   1   7  24
Cartesian
  1.9541806880330002  5.8690823119670004  5.8690823119670004
  1.9541806880330002  5.8690823119670004  1.9541806880330002
  1.9541806880330002  1.9541806880330002  5.8690823119670004
  1.9541806880330002  1.9541806880330002  1.9541806880330002
  5.8690823119670004  5.8690823119670004  5.8690823119670004
  5.8690823119670004  5.8690823119670004  1.9541806880330002
  5.8690823119670004  1.9541806880330002  5.8690823119670004
  5.8690823119670004  1.9541806880330002  1.9541806880330002
  0.0000000000000000  0.0000000000000000  0.0000000000000000
  0.0000000000000000  3.9116314999999999  3.9116314999999999
  0.0000000000000000  3.9116314999999999  0.0000000000000000
  0.0000000000000000  0.0000000000000000  3.9116314999999999
  3.9116314999999999  3.9116314999999999  3.9116314999999999
  3.9116314999999999  3.9116314999999999  0.0000000000000000
  3.9116314999999999  0.0000000000000000  3.9116314999999999
  3.9116314999999999  0.0000000000000000  0.0000000000000000
  1.9514581925090000  3.9116314999999999  3.9116314999999999
  1.9635529571070001  3.9116314999999999  0.0000000000000000
  1.9635529571070001  0.0000000000000000  3.9116314999999999
  1.9347320562149999  0.0000000000000000  0.0000000000000000
  5.8718048074910003  3.9116314999999999  3.9116314999999999
  5.8597100428930000  3.9116314999999999  0.0000000000000000
  5.8597100428930000  0.0000000000000000  3.9116314999999999
  5.8885309437849997  0.0000000000000000  0.0000000000000000
  0.0000000000000000  5.8597100428930000  3.9116314999999999
  0.0000000000000000  5.8885309437849997  0.0000000000000000
  0.0000000000000000  1.9635529571070001  3.9116314999999999
  0.0000000000000000  1.9347320562149999  0.0000000000000000
  3.9116314999999999  5.8718048074910003  3.9116314999999999
  3.9116314999999999  5.8597100428930000  0.0000000000000000
  3.9116314999999999  1.9514581925090000  3.9116314999999999
  3.9116314999999999  1.9635529571070001  0.0000000000000000
  0.0000000000000000  3.9116314999999999  5.8597100428930000
  0.0000000000000000  3.9116314999999999  1.9635529571070001
  0.0000000000000000  0.0000000000000000  5.8885309437849997
  0.0000000000000000  0.0000000000000000  1.9347320562149999
  3.9116314999999999  3.9116314999999999  5.8718048074910003
  3.9116314999999999  3.9116314999999999  1.9514581925090000
  3.9116314999999999  0.0000000000000000  5.8597100428930000
  3.9116314999999999  0.0000000000000000  1.9635529571070001
