Cr  O  W  Y 
 1.0000000000000000
    -4.6152139999999999    0.1116490000000000    2.2412310000000000
    -1.1298050000000002    5.3691805000000006   -2.0503255000000000
    -4.4555280000000002    0.0053470000000000   -4.1812469999999999
 Cr  O   W   Y  
   1   8   2   1
Cartesian
 -8.7365725979690012  1.3111408282929999 -2.0607758258230002
 -4.7408248193480009  3.8018289833064998 -0.5474614422114999
 -7.0395834224530001  2.5732280839045001 -2.2166168994045004
 -4.0201962280379995  1.1819906564484997  0.1095930489665000
 -6.5182280986630001  0.3107231393720001 -0.6906718743469992
 -2.6069595125070011  5.2569859259785003 -2.0608400743485009
 -4.8630054822569999  4.1614303002099993 -3.5363084944400005
 -4.4045224150760003  1.3068714312484999 -2.3229154796284996
 -1.9903501973169997  2.2255213736600004 -1.4061975923149999
 -5.5491961500839988  2.2038171167844998 -0.9643520397744993
 -2.8214380060900011  0.3490643427445002 -1.1984995497994999
 -7.0340495996109995  3.8449671950914999 -4.0942677562664995
