Na Ni  O 
 1.0000000000000000
     2.9703430000000002   -0.0448060000000000   -0.0294380000000000
    -1.5229910000000000    2.6307950000000000    0.0586000000000000
    -0.1041580000000000    0.1847350000000000   10.6951210000000003
 Na  Ni  O  
   2   2   4
Cartesian
  1.4642235819310001  0.9010092843710000  2.6739675708779997
 -0.1215233023550000  1.8694688816450000  8.0501450401939998
 -0.0521138777420000  0.0936534989540000  5.3475716001210003
  1.4477563729400000  2.5848328074399998  0.0292884799140000
  0.0197308140480001  1.7821815582989999  4.3298812226000001
  1.3235735580530001  0.9915508393720001  6.3941836244729995
  1.3644600890310001  0.9251772371040000  9.6486782618829992
 -0.0212522359060000  1.8426543928150001  1.0758556999370001
