Li Fe  O 
 1.0000000000000000
     5.1654070000000001    0.0000000000000000    0.0000000000000000
     0.9540729999999999    5.0831809999999997    0.0000000000000000
     2.5248870000000001    2.1515759999999999    7.1774659999999999
 Li  Fe  O  
   4   5  10
Cartesian
  3.0756619894090003  3.7902272912979997  4.1328854073240002
  3.8747310141150000  1.1445947554359999  3.5314209339899998
  5.6022957350790001  4.2420830356000003  5.5766470481560004
  5.5509184245420000  3.4382437047529999  2.8995024724180003
  2.2691037689830003  5.6612685979910005  2.2303688496360001
  0.4979730627480000  2.5347233780080001  0.0523811468680000
  3.8277304167240005  0.2897355733250000  0.8082042039980000
  4.7674428753060001  6.9803262863119997  6.4101015775420001
  7.3179710654769998  6.5636779939989998  4.9506930608299999
  1.2698676722660001  4.1810842467070000  0.9992109291900000
  1.9854635828120000  2.1296494652300000  3.4395996114520000
  2.0830246212390002  1.2485851895269999  0.3588733000000000
  3.8168478761500002  5.4697933068199998  5.5195359511940003
  3.9664744739270001  4.7335812542769995  2.4468196917979999
  4.7465313015900001  2.5763707125869999  4.7675600158400000
  4.8870725103070010  1.7503015346489998  1.6865968480100000
  6.5840475385100001  5.9606895842979997  6.6582122222299995
  6.5852062992290001  5.0560240378709995  3.9154225424560001
  7.3180717688040007  3.0884197788550001  6.1864230271179999
