Si  O 
 1.0000000000000000
     4.8656984000000003  -12.8649370199999993    0.0000000000000000
     4.8656984000000003   12.8649370199999993   -0.0000000000000000
    -0.0000000000000000   -0.0000000000000000    8.3590810300000005
 Si  O  
  20  40
Cartesian
  6.8686953086264246 -3.6437033065851985  0.5160091648418811
  6.8686953086264246  3.6437033065851980  7.8430718651581195
  2.8627014913735760 -3.6437033065851989  3.6635313501581193
  2.8627014913735760  3.6437033065851985  4.6955496798418812
  2.8627014913735760  3.6437033065851985  7.8430718651581195
  2.8627014913735760 -3.6437033065851989  0.5160091648418811
  6.8686953086264246  3.6437033065851980  4.6955496798418812
  6.8686953086264246 -3.6437033065851985  3.6635313501581193
  4.8656984000000003  1.5201152977109120  0.4876908552641193
  4.8656984000000003 -1.5201152977109120  7.8713901747358817
  4.8656984000000003  1.5201152977109120  3.6918496597358810
  4.8656984000000003 -1.5201152977109120  4.6672313702641191
  4.8656984000000003  5.7553392743704261  0.5565521288811561
  4.8656984000000012 -5.7553392743704270  7.8025289011188441
  4.8656984000000003  5.7553392743704261  3.6229883861188439
  4.8656984000000012 -5.7553392743704270  4.7360926438811566
  4.8656983999999994 -8.6509898480803820  0.5321754603722805
  4.8656984000000003  8.6509898480803820  7.8269055696277192
  4.8656983999999994 -8.6509898480803820  3.6473650546277199
  4.8656984000000003  8.6509898480803820  4.7117159753722815
  6.6392376330255765 -3.8837784693028232  2.0897702575000001
  6.6392376330255765  3.8837784693028223  6.2693107725000008
  3.0921591669744242 -3.8837784693028228  2.0897702575000001
  3.0921591669744242  3.8837784693028228  6.2693107725000008
  3.5707840513419842  9.2772277085474997  0.1867641889565501
  3.5707840513419842 -9.2772277085474997  8.1723168410434504
  6.1606127486580160  9.2772277085474997  3.9927763260434501
  6.1606127486580160 -9.2772277085474997  4.3663047039565503
  6.1606127486580160 -9.2772277085474997  8.1723168410434504
  6.1606127486580160  9.2772277085474997  0.1867641889565501
  3.5707840513419842 -9.2772277085474997  4.3663047039565503
  3.5707840513419842  9.2772277085474997  3.9927763260434501
  6.1880380630616800 -4.8679277544728849  8.0668942008633469
  6.1880380630616809  4.8679277544728841  0.2921868291366526
  3.5433587369383202 -4.8679277544728841  4.4717273441366530
  3.5433587369383202  4.8679277544728841  3.8873536858633480
  3.5433587369383202  4.8679277544728841  0.2921868291366526
  3.5433587369383202 -4.8679277544728841  8.0668942008633469
  6.1880380630616809  4.8679277544728841  3.8873536858633480
  6.1880380630616800 -4.8679277544728849  4.4717273441366530
  6.1899215749123204 -2.2493148513314534  0.0790999776074428
  6.1899215749123204  2.2493148513314534  8.2799810523925572
  3.5414752250876802 -2.2493148513314543  4.1004405373925570
  3.5414752250876802  2.2493148513314543  4.2586404926074435
  3.5414752250876802  2.2493148513314543  8.2799810523925572
  3.5414752250876802 -2.2493148513314543  0.0790999776074428
  6.1899215749123204  2.2493148513314534  4.2586404926074435
  6.1899215749123204 -2.2493148513314534  4.1004405373925570
  4.8656984000000003  0.0000000000000000  0.0000000000000000
  4.8656984000000003  0.0000000000000000  4.1795405150000002
  4.8656984000000003  1.5936592539781826  2.0897702575000001
  4.8656984000000003 -1.5936592539781824  6.2693107725000008
  4.8656984000000003  6.2595017474547641  2.0897702575000001
  4.8656984000000003 -6.2595017474547632  6.2693107725000008
  4.8656984000000003  7.0416029512965084  7.9547679120604267
  4.8656984000000003 -7.0416029512965075  0.4043131179395739
  4.8656984000000003  7.0416029512965084  4.5838536329395740
  4.8656984000000003 -7.0416029512965075  3.7752273970604264
  4.8656984000000003 -9.0456086689331201  2.0897702575000001
  4.8656984000000003  9.0456086689331219  6.2693107725000008
