Zn Cu Si  O 
 1.0000000000000000
     7.2572190000000001    0.0000000000000000    0.0000000000000000
     0.0000000000000000    7.2572190000000001    0.0000000000000000
     0.0000000000000000    0.0000000000000000   14.9545239999999993
 Zn  Cu  Si  O  
   4   4  16  40
Cartesian
  3.6286095000000000  3.6286095000000000  7.4772619999999996
  0.0000000000000000  0.0000000000000000  7.4772619999999996
  0.0000000000000000  0.0000000000000000  0.0000000000000000
  3.6286095000000000  3.6286095000000000  0.0000000000000000
  3.6286095000000000  0.0000000000000000  8.5716041572719988
  0.0000000000000000  3.6286095000000000 13.8601818427280001
  0.0000000000000000  3.6286095000000000  6.3829198427279996
  3.6286095000000000  0.0000000000000000  1.0943421572720000
  1.2035807422739999  1.7530973649540000  9.6405983963640001
  6.0536382577259999  5.5041216350460003  9.6405983963640001
  1.7530973649540000  1.2035807422739999 12.7911876036359988
  5.3817068649539994  2.4250287577259999  9.6405983963640001
  1.8755121350460000  4.8321902422740006  9.6405983963640001
  2.4250287577259999  5.3817068649539994 12.7911876036359988
  4.8321902422740006  1.8755121350460000 12.7911876036359988
  5.5041216350460003  6.0536382577259999 12.7911876036359988
  2.4250287577259999  1.8755121350460000  5.3139256036360001
  4.8321902422740006  5.3817068649539994  5.3139256036360001
  1.8755121350460000  2.4250287577259999  2.1633363963640000
  5.5041216350460003  1.2035807422739999  5.3139256036360001
  1.7530973649540000  6.0536382577259999  5.3139256036360001
  1.2035807422739999  5.5041216350460003  2.1633363963640000
  6.0536382577259999  1.7530973649540000  2.1633363963640000
  5.3817068649539994  4.8321902422740006  2.1633363963640000
  1.7282123610030000  0.6089605035090000  8.6142095961479992
  5.5290066389970001  6.6482584964910005  8.6142095961479992
  0.6089605035090000  1.7282123610030000 13.8175764038519997
  4.2375700035090000  1.9003971389970000  8.6142095961479992
  3.0196489964910000  5.3568218610030005  8.6142095961479992
  1.9003971389970000  4.2375700035090000 13.8175764038519997
  5.3568218610030005  3.0196489964910000 13.8175764038519997
  6.6482584964910005  5.5290066389970001 13.8175764038519997
  1.9003971389970000  3.0196489964910000  6.3403144038519992
  5.3568218610030005  4.2375700035090000  6.3403144038519992
  3.0196489964910000  1.9003971389970000  1.1369475961480000
  6.6482584964910005  1.7282123610030000  6.3403144038519992
  0.6089605035090000  5.5290066389970001  6.3403144038519992
  1.7282123610030000  6.6482584964910005  1.1369475961480000
  5.5290066389970001  0.6089605035090000  1.1369475961480000
  1.8065540401080000  0.3988640134590000  5.6152293531880000
  4.2375700035090000  5.3568218610030005  1.1369475961480000
  5.4351635401080003  4.0274735134590003  9.3392946468120002
  3.2297454865410002  1.8220554598920000 13.0924913531879987
  6.8583549865409994  1.8065540401080000  9.3392946468120002
  0.3988640134590000  5.4506649598919994  9.3392946468120002
  1.8065540401080000  6.8583549865409994 13.0924913531879987
  5.4506649598919994  0.3988640134590000 13.0924913531879987
  4.0274735134590003  5.4351635401080003 13.0924913531879987
  5.0695811329830001  5.0695811329830001  3.7386309999999998
  5.8162473670170005  1.4409716329830000  3.7386309999999998
  1.4409716329830000  5.8162473670170005  3.7386309999999998
  2.1876378670170000  2.1876378670170000  3.7386309999999998
  5.8162473670170005  5.8162473670170005 11.2158929999999994
  5.0695811329830001  2.1876378670170000 11.2158929999999994
  2.1876378670170000  5.0695811329830001 11.2158929999999994
  1.4409716329830000  1.4409716329830000 11.2158929999999994
  6.8583549865409994  5.4506649598919994  1.8620326468119999
  5.4351635401080003  3.2297454865410002  1.8620326468119999
  1.8220554598920000  4.0274735134590003  1.8620326468119999
  3.2297454865410002  5.4351635401080003  5.6152293531880000
  4.0274735134590003  1.8220554598920000  5.6152293531880000
  0.3988640134590000  1.8065540401080000  1.8620326468119999
  5.4506649598919994  6.8583549865409994  5.6152293531880000
  1.8220554598920000  3.2297454865410002  9.3392946468120002
