Mg Cr Cu  W  O 
 1.0000000000000000
     0.0511894000000000   -0.0000009100000000   -5.1049762400000001
    -4.8582048400000000   -5.7596838300000002    0.0807088100000000
    -4.8581979600000000    5.7596796899999996    0.0807103500000000
 Mg  Cr  Cu  W   O  
   1   2   2   4  16
Cartesian
 -4.8198136387170587 -0.5798412618520463 -3.7480121996053191
 -4.8197867623039823 -3.6338000860766182 -3.7479295811857489
 -4.8454277697307466  3.6756649274419528 -1.1955992992201823
 -4.8197962331591251  2.0254099580705751 -3.7480181374927439
 -4.8453812263309706 -2.0784322450817183 -1.1954884038620424
 -2.1254092291258058 -0.9759534742144987 -3.8041482800636119
 -7.3304326645804956  0.9562577782508220 -1.1206856875592919
 -7.5142167752537494 -0.9759565149090690 -3.6919098902574854
 -2.3603703784296490  0.9562777386706784 -1.2703858890617532
 -3.6747482436352117 -3.6843839813084109 -2.0692815461199783
 -5.8615655327659244  3.5906747204998157 -2.8938205020507661
 -6.0160845095007645 -3.6844014852613931 -0.3217838771648004
 -3.7780391236502897  3.5906871676288548 -4.6022470726699138
 -8.3754129154542891  0.7290704931453172 -4.5421245749661301
 -1.2758831871294900 -0.6948428890004639 -0.5130002098235028
 -1.2642069238057392  0.7290727978791887 -2.9539331059755800
 -8.4149356770013028 -0.6948466048729997 -1.8780809697849943
 -3.6660243021115693 -2.1167208076720123 -4.5096052988090900
 -6.0822954795686668  2.1933672252725009 -0.4991738361703807
 -5.9735875144071828 -2.1167185247777014 -2.9864199518011612
 -3.6085231607933337  2.1933713731643860 -1.8919190737512737
 -6.2835716058232904  0.5294503096888988 -2.7300798313527301
 -3.3938432370191345 -0.5400109169081144 -2.2880229894375521
 -3.3560619065365964  0.5294445130252599 -4.7659847745080270
 -6.2969523268940923 -0.5400072712394219 -0.1030527140834079
