Li Ti Mn  O 
 1.0000000000000000
     2.5042399999999998   -4.3374699999999997    0.0000000000000000
     2.5042399999999998    4.3374699999999997    0.0000000000000000
     0.0000000000000000    0.0000000000000000   23.6613329999999991
 Li  Ti  Mn  O  
   8   6   7  30
Cartesian
  0.0000000000000000  0.0000000000000000 21.7725670932749971
  0.0000000000000000  0.0000000000000000 14.8083269513849984
  0.0000000000000000  0.0000000000000000  8.8162126757999992
  0.0000000000000000  0.0000000000000000  1.9474696738980000
  2.5042399999999998 -1.4458262249800000 11.1725738452709997
  2.5042399999999998 -1.4458262249800000  4.8408721184700001
  2.5042399999999998  1.4458262249799998 18.7733511675270002
  2.5042399999999998  1.4458262249799998 12.4728587389529988
  2.5042399999999998 -1.4458262249800000 13.9304441744189997
  2.5042399999999998  1.4458262249799998 21.1029277080419995
  2.5042399999999998  1.4458262249799998  9.7069198952519997
  0.0000000000000000  0.0000000000000000 18.9354786212429964
  0.0000000000000000  0.0000000000000000 11.8172505241889993
  0.0000000000000000  0.0000000000000000  4.6655179796069994
  2.5042399999999998 -1.4458262249800000 16.7331290682689975
  2.5042399999999998 -1.4458262249800000 23.5096165328039994
  2.5042399999999998 -1.4458262249800000  2.5162407965519997
  2.5042399999999998  1.4458262249799998  0.2244514048380000
  2.5042399999999998  1.4458262249799998  6.9144093745919992
  2.5042399999999998 -1.4458262249800000  7.2106492637519999
  2.5042399999999998  1.4458262249799998 16.4285130672270014
  1.4836394922399998  0.2875872734099999 20.0719797678989984
  1.8665853687999998  2.8982193795399995 10.6623171991260008
  1.8915326076799999 -0.0844505408999999 15.4819414405619984
  1.7099151059199997 -0.0589635671800001  6.0141902992740004
  3.9823601472799997 -1.5371256310099999  1.1346082400160000
  1.0006041513599999 -1.1450487053000000  3.5590667258609998
  0.9235061144800000 -1.2717418665299998 13.0047891661260007
  1.0202649395999999  1.6006261918099998  8.1799357700969999
  3.3042845782399999  2.8311360685199998 17.6358562448850016
  3.1693110507199997  0.1065369381400005 22.6100836361429991
  3.3315607603199999  2.6914348347599999 22.6100836361429991
  2.9955794007199996 -2.8983972158099993  3.5590667258609998
  3.3802907664799999  2.6535817340699999  8.1799357700969999
  0.9045014371199999  1.4460257485999999 17.6358562448850016
  3.4453659471200000 -0.1639086538299999 13.0047891661260007
  1.5652576823199997  0.1674046546499999 10.6623171991260008
  4.1024584892000000 -1.4513478242899998  6.0141902992740004
  1.6316100253599999 -2.6571297845299999 15.4819414405619984
  2.0114781909599997  2.9088071438099998 20.0719797678989984
  1.6861098004799999 -2.6802615120400000  1.1346082400160000
  1.8442500522399998 -0.1200828569500001  1.1346082400160000
  1.7003464048799999 -2.8271586085299996  6.0141902992740004
  3.9895773669599994 -1.5958896745700000 15.4819414405619984
  4.0808769488799994  1.2718546407499998 10.6623171991260008
  4.0176023167999997  1.1410755827799999 20.0719797678989984
  1.0118481889600000  1.5394982270999999 22.6100836361429991
  3.3039339846399995  0.0603081828800000 17.6358562448850016
  3.1121642939199998  0.0832620741200000  8.1799357700969999
  3.1438479384000000 -2.9018194796399999 13.0047891661260007
  3.5165364479200001 -0.2940240788900000  3.5590667258609998
