Ba Sr Mg Nb  O 
 1.0000000000000000
    -2.9953099999999999   -5.1870219999999998   -0.0014620000000000
    -2.9946899999999999    5.1866649999999996   -0.0007250000000000
    -0.0033490000000000   -0.0008250000000000   -9.1067950000000000
 Ba  Sr  Mg  Nb  O  
   3   1   1   2   9
Cartesian
 -5.9919859387179990 -0.0017533524689995 -8.5460177688190004
 -2.9976352295730004  1.7270724284040000 -6.8612743108160004
 -2.9955333673819999 -1.7286158429710001 -2.2294485275809999
 -0.0043322050120000 -0.0015219351870000 -5.1182747499170000
 -2.9963834842750003 -5.1861070934589995 -2.2691905648090001
 -2.9947720977240002  1.7291983287389998 -1.2585823760910000
 -2.9977525379629997 -1.7304016056650002 -7.7995196679349998
 -4.4090620397970000  0.9133687671279991 -2.5193274767320002
 -2.9956508527179997  3.3612331875039998 -2.5206319666360000
 -1.5824366254150000  0.9136301812479998 -2.5228670555720001
 -1.5503904560249999 -0.8942835097459999 -6.6442632567860000
 -2.9982634968449999 -3.4020219154600002 -6.6451521252000001
 -4.4460672759239994 -0.8944820251929999 -6.6453296016829997
 -2.9974653528390003  0.0136654978220000 -9.1017946905380001
 -4.4821246197560001  2.5850584612179999 -9.1015439619620011
 -1.5128190839020002  2.5850538045440001 -9.1014069626760001
