Li Mn Co Ni  O 
 1.0000000000000000
    19.2313089999999995   -1.4632989999999999    0.0000000000000000
    19.2313089999999995    1.4632989999999999    0.0000000000000000
    19.1199680000000001    0.0000000000000000    2.5320619999999998
 Li  Mn  Co  Ni  O  
   4   1   2   1   8
Cartesian
  0.0181385145900000  0.0000000000000000  0.0007975995300000
 14.5394877998279988  0.0000000000000000  0.6393405908759999
 28.7104470492559969  0.0000000000000000  1.2624759849520000
 43.1066693751159988 -0.0000000000000001  1.8955168055719998
 50.3751464581379977  0.0000000000000001  2.2151313956459999
  7.1751357111159999 -0.0000000000000000  0.3155101175720000
 21.6124720033799989  0.0000000000000000  0.9503588304599999
 36.0043180527040008 -0.0000000000000000  1.5832072143680000
 17.8906791398560010 -0.0000000000000000  0.7867015351520000
 32.2704904287059975  0.0000000000000000  1.4190207181019998
 46.6895154586219974  0.0000000000000000  2.0530642352739998
  3.4277761794079997 -0.0000000000000000  0.1507285867360000
 54.0769581643199970 -0.0000000000000001  2.3779100654399996
 10.8754502700620002  0.0000000000000000  0.4782229537540000
 25.2816343833000019 -0.0000000000000000  1.1117018210999998
 39.8149032638400016  0.0000000000000000  1.7507689492800000
