System
1.0
3.965701013 0.0 0.0
0.0 3.965701013 0.0
0.0 0.0 8.442596164
Co Cs O
2 2 4
direct
0.0 0.5000001277202007 0.07619996537758511 
0.5000001277202007 0.0 0.9239995801691422 
0.5000001277202007 0.0 0.3419998446080591 
0.0 0.5000001277202007 0.6579997010295406 
0.0 0.0 0.0 
0.5000001277202007 0.5000001277202007 0.0 
0.0 0.5000001277202007 0.2809998723241655 
0.5000001277202007 0.0 0.7189996733134342 
