System
1.0
5.141967 0.000929 -1.672139
-0.590485 5.300683 -1.812874
-0.082774 -0.108368 8.462565
Ca Mn Ga O
4 2 2 10
direct
0.6115536119614867 0.13687704645141904 0.2195690705751763 
0.39162209021847716 0.8632267146492284 0.7804322702848866 
0.1116203761314227 0.5827143920462419 0.2195720257956537 
0.8916693257711948 0.4171943689265683 0.7804383150931813 
0.9871264360756211 0.9995863755984222 9.881085718752187e-05 
0.48716022260468933 0.5005021894356592 0.00011290562730764561 
0.27737465916035514 0.18322424470313117 0.49995922664032644 
0.7774030117300089 0.8168195065704053 0.4999921120284532 
0.6296203872259448 0.12666614615774524 0.4999652201583188 
0.12961746272336247 0.8733516610638347 0.49994613094194146 
0.3000297487708092 0.43139746227467596 0.7116563014070815 
0.5897340213365412 0.5679653199000277 0.2883700443528727 
0.8001498066980091 0.7802775639021005 0.7117022288438969 
0.08974196462532126 0.22030321891594454 0.2882781167063787 
0.25788061363404136 0.7651533934258913 0.030054892095893106 
0.22093739606998888 0.22512346146191045 0.9699434723010442 
0.7208941135125393 0.24475737779616358 0.9698964483171979 
0.7578643104456623 0.7648712985516737 0.030019871058401027 
