System
1.0
8.426591629 0.0 0.0
-4.213295814 7.297642418 0.0
0.0 0.0 12.956930668
B O P Zn
6 42 6 18
direct
0.0 0.0 0.194000010001752 
0.3330005062159442 0.6670002210037766 0.27300001407463037 
0.6670003495317312 0.3330001103362183 0.28300001459018453 
0.6670003495317312 0.3330001103362183 0.7170000369652378 
0.3330005062159442 0.6670002210037766 0.7270000374807921 
0.0 0.0 0.8060000415536706 
0.8570002590751311 0.14100004671893926 0.0 
0.28400014962956266 0.14300004738161926 0.0 
0.19300030625711342 0.40600013452403794 0.0 
0.8590006403596138 0.7160002372394362 0.0 
0.5940006361633103 0.7870002607645759 0.0 
0.21300057575829417 0.8070002673913759 0.0 
0.48100012902154893 0.05440001802489571 0.09910000510914237 
0.9460004650731584 0.4260001411508378 0.09910000510914237 
0.5740004547654581 0.5190001719654573 0.09910000510914237 
0.10300014444864918 0.18800006229191904 0.1950000100533074 
0.08530061069055411 0.8970002972119754 0.1950000100533074 
0.8120007630975097 0.9150003031760953 0.1950000100533074 
0.3990004388206857 0.5460001809116372 0.2710000139715195 
0.14700042653860163 0.6010001991353368 0.2710000139715195 
0.4540006528194306 0.8530002826330156 0.2710000139715195 
0.7410002889824541 0.22000007289479884 0.28400001464173996 
0.47800026397499035 0.2590000858170587 0.28400001464173996 
0.7800004965759776 0.5220001729594773 0.28400001464173996 
0.09590020269489494 0.2780000921125186 0.4010000206737244 
0.7220006814432016 0.8180002710361157 0.4010000206737244 
0.18200063402128974 0.9040002995313553 0.4010000206737244 
0.8060002724010693 0.17600005831583906 0.5000000257777113 
0.37000020003877626 0.19400006427995897 0.5000000257777113 
0.055500349893767016 0.5120001696460774 0.5000000257777113 
0.48800045403857284 0.5430001799176172 0.5000000257777113 
0.8240005766244621 0.6300002087441967 0.5000000257777113 
0.45700071434303646 0.9450003131162951 0.5000000257777113 
0.09590020269489494 0.2780000921125186 0.5990000308816981 
0.7220006814432016 0.8180002710361157 0.5990000308816981 
0.18200063402128974 0.9040002995313553 0.5990000308816981 
0.7410002889824541 0.22000007289479884 0.7160000369136824 
0.47800026397499035 0.2590000858170587 0.7160000369136824 
0.7800004965759776 0.5220001729594773 0.7160000369136824 
0.3990004388206857 0.5460001809116372 0.729000037583903 
0.14700042653860163 0.6010001991353368 0.729000037583903 
0.4540006528194306 0.8530002826330156 0.729000037583903 
0.10300014444864918 0.18800006229191904 0.8050000415021151 
0.08530061069055411 0.8970002972119754 0.8050000415021151 
0.8120007630975097 0.9150003031760953 0.8050000415021151 
0.48100012902154893 0.05440001802489571 0.9010000464514357 
0.9460004650731584 0.4260001411508378 0.9010000464514357 
0.5740004547654581 0.5190001719654573 0.9010000464514357 
0.3630000785205687 0.012600004174883935 0.0 
0.9870004233168121 0.3510001163003381 0.0 
0.6490005474310687 0.6370002110635767 0.0 
0.01430020811805107 0.31000010271539835 0.5000000257777113 
0.6900005997399303 0.7040002332633563 0.5000000257777113 
0.2960007103787313 0.9860003267012348 0.5000000257777113 
0.3200002817884286 0.33200011000487833 0.11500000592887359 
0.01280045292756195 0.6800002253111964 0.11500000592887359 
0.6680007829549497 0.9870003270325748 0.11500000592887359 
0.003300221889913175 0.3340001106675583 0.2540000130950773 
0.666000572577676 0.6700002219977966 0.2540000130950773 
0.33000072423823834 0.9970003303459748 0.2540000130950773 
0.6450001283392229 0.005510001825683372 0.3820000196941714 
0.3610003049503245 0.3550001176256981 0.3820000196941714 
0.9940006154501688 0.6390002117262567 0.3820000196941714 
0.6450001283392229 0.005510001825683372 0.6180000318612511 
0.3610003049503245 0.3550001176256981 0.6180000318612511 
0.9940006154501688 0.6390002117262567 0.6180000318612511 
0.003300221889913175 0.3340001106675583 0.7460000384603452 
0.666000572577676 0.6700002219977966 0.7460000384603452 
0.33000072423823834 0.9970003303459748 0.7460000384603452 
0.3200002817884286 0.33200011000487833 0.885000045626549 
0.01280045292756195 0.6800002253111964 0.885000045626549 
0.6680007829549497 0.9870003270325748 0.885000045626549 
