System
1.0
4.231143 0.0 0.193193
0.0 4.22281 0.0
-1.159864 0.0 7.652878
O Si
8 4
direct
0.500000405437987 0.681 6.487696069058819e-07 
0.5960002772381633 0.222 0.20400017332564463 
0.09429986638113018 0.7790000000000001 0.20799998598094177 
0.6290001343134164 0.7080000000000001 0.37200014596491665 
-1.0557727771406591e-11 0.163 0.49999988207896967 
0.37099966654155847 0.7080000000000001 0.6279999897320795 
0.9059999347171078 0.7790000000000001 0.7920001498275162 
0.4039995236168116 0.222 0.7959999623713516 
0.43300015516544643 0.583 0.19400011512314155 
0.8520003676601079 0.9900000000000001 0.32000024108201675 
0.14799943319486714 0.9900000000000001 0.6799998946149796 
0.5669996456895284 0.583 0.8060000205738548 
