System
1.0
1.487465 -2.576365 0.0
1.487465 2.576365 0.0
-1.487465 0.858788 7.825792
Ag Ni O
2 1 2
direct
0.5700016703649261 0.7850017817956682 0.3550000907256648 
0.43000056887405314 0.214999595965535 0.6450001648395882 
0.0 0.0 0.0 
0.7590021261188822 0.38000127083961727 0.13900003552357018 
0.241000113120097 0.6200001069215857 0.8610002200416828 
