System
1.0
0.0 5.25148 5.25148
5.25148 0.0 5.25148
5.25148 5.25148 0.0
Bi Mn O
4 4 14
direct
0.125 0.125 0.125 
0.625 0.125 0.12499999999999999 
0.12499999999999997 0.625 0.12500000000000003 
0.12500000000000003 0.12499999999999997 0.6249999999999999 
0.625 0.625 0.125 
0.12499999999999992 0.625 0.625 
0.625 0.625 0.625 
0.6250000000000001 0.12499999999999996 0.625 
0.4660000000000001 0.03359999999999999 0.03360000000000002 
0.466 0.466 0.03360000000000002 
0.03359999999999999 0.4660000000000001 0.03360000000000002 
0.784 0.784 0.21600000000000003 
0.7839999999999999 0.21600000000000003 0.21599999999999997 
0.21599999999999997 0.784 0.21599999999999997 
0.033600000000000005 0.0336 0.466 
0.466 0.03360000000000002 0.46599999999999997 
0.03360000000000002 0.466 0.4660000000000001 
0.5 0.5 0.5 
0.75 0.7499999999999999 0.7499999999999999 
0.7839999999999999 0.21600000000000003 0.784 
0.21599999999999997 0.216 0.784 
0.21599999999999997 0.784 0.784 
