System
1.0
6.09484666 0.0 -0.0
-0.0 6.47076007 -2.44200123
-0.0 -0.01899857 6.91619433
Cs Pb O
4 2 6
direct
0.2499998629990894 0.48323495541674694 0.8089009859536962 
0.2499998629990894 0.8089006161289762 0.4832349696830479 
0.7499995889972682 0.5167652779533423 0.1910995446693431 
0.7499995889972682 0.19109961724111296 0.5167655609399913 
0.7499995889972682 0.9105961725058603 0.9105964431831958 
0.2499998629990894 0.0894040608642288 0.08940408743984343 
0.7499995889972682 0.6501445717242612 0.650144764981608 
0.2499998629990894 0.34985566164582793 0.34985576564143117 
0.4999997259981788 0.12449169657722985 0.8755090953955654 
0.0 0.8755085367928593 0.12449143522747388 
0.0 0.12449169657722985 0.8755090953955654 
0.4999997259981788 0.8755085367928593 0.12449143522747388 
