System
1.0
8.567738 0.0 0.0
0.0 11.809877 0.0
0.0 4.12078 11.597498
Rb V S O
12 4 8 40
direct
0.28399693370550455 0.014473999274839677 0.04905199154093555 
0.28399693370550455 0.9855257767869181 0.4509479222335849 
0.7160028328607076 0.9855258068732722 0.9509478360081053 
0.7160028328607076 0.014474029361193784 0.5490519053154559 
0.8523768010264084 0.3760889431995423 0.6437368889869368 
0.8523768010264084 0.6239108930349238 0.8562628523366242 
0.14762296553980397 0.6239108629485696 0.35626293856210395 
0.14762296553980397 0.37608891311318815 0.14373697521241646 
0.6915498385688641 0.49999988803087886 0.24999995688726018 
0.30844992799734816 0.4999999181172331 0.7499998706617805 
0.8849047934332741 1.504317706255718e-08 0.24999995688726018 
0.1150949731329382 4.5129531187154776e-08 0.7499998706617805 
0.6704508434940836 0.32575991868839904 0.023921995874628153 
0.6704508434940836 0.6742398573733586 0.47607791789989223 
0.3295489230721287 0.6742398874597128 0.9760778316744125 
0.3295489230721287 0.3257599487747531 0.5239219096491485 
0.5104728808383541 0.18314496625782992 0.21240796337003667 
0.5104728808383541 0.8168548098039278 0.28759195040448376 
0.4895268857278582 0.8168548398902818 0.7875918641790041 
0.4895268857278582 0.18314499634418407 0.712407877144557 
0.978782771518977 0.2353609964288697 0.9342498388876913 
0.978782771518977 0.7646388398055963 0.5657499024358698 
0.021216995047235326 0.7646388097192421 0.06574998866134943 
0.021216995047235326 0.23536096634251555 0.43424992511317095 
0.34715491896229345 0.14723897528797628 0.2108979636304376 
0.34715491896229345 0.8527608007737815 0.2891019501440828 
0.6528448476039189 0.8527608308601358 0.7891018639186032 
0.6528448476039189 0.1472390053743304 0.710897877404958 
0.028603993322859938 0.35782796127858185 0.8670988504679457 
0.028603993322859938 0.6421718749558841 0.6329008908556155 
0.9713957732433524 0.64217184486953 0.13290097708109505 
0.9713957732433524 0.3578279311922278 0.3670989366934253 
0.7968168139959896 0.23659599689583002 0.9472238366503125 
0.7968168139959896 0.763403839338636 0.5527759046732486 
0.2031829525702227 0.7634038092522819 0.05277599089872818 
0.2031829525702227 0.2365959668094759 0.44722392287579227 
0.5822648640796757 0.1375169847038205 0.3263359437230438 
0.5822648640796757 0.8624827913579374 0.17366397005147663 
0.4177349024865367 0.8624828214442916 0.673663883825997 
0.4177349024865367 0.1375170147901747 0.826335857497564 
0.5668328676820258 0.4111639505714617 0.914321842324294 
0.5668328676820258 0.5888358856630043 0.5856778989992671 
0.43316689888418647 0.5888358555766501 0.08567798522474672 
0.43316689888418647 0.41116392048510764 0.4143219285497737 
0.046895989052889095 0.19188995435128658 0.051452991126880794 
0.046895989052889095 0.8081098217104712 0.4485469226476395 
0.9531037775133231 0.8081098517968253 0.94854683642216 
0.9531037775133231 0.19188998443764071 0.5514529049014012 
0.47464688920135295 0.3199969584117151 0.6597478862258245 
0.47464688920135295 0.6800028778227509 0.8402518550977366 
0.5253528773648592 0.6800028477363969 0.3402519413232162 
0.5253528773648592 0.319996928325361 0.15974797245130418 
0.8080198113808309 0.4078348998442248 0.05724099012873464 
0.8080198113808309 0.5921648762175331 0.44275892364578573 
0.19197995518538144 0.5921649063038872 0.9427588374203061 
0.19197995518538144 0.4078349299305789 0.557240903903255 
0.6074008582120839 0.14783196986049404 0.12320297875352446 
0.6074008582120839 0.8521678062012639 0.37679693502099587 
0.39259890835412836 0.8521678362876179 0.8767968487955162 
0.39259890835412836 0.14783199994684817 0.6232028925280448 
0.005130998802251235 0.8518018213360298 0.6267738919122225 
0.005130998802251235 0.14819801489843618 0.8732258494113386 
0.9948687677639612 0.14819798481208205 0.37322593563681833 
0.9948687677639612 0.8518017912496757 0.12677397813770208 
