System
1.0
0.0 -3.967316 0.0
-3.967316 0.0 0.0
1.983658 1.983658 -6.128138
Cu O Pr
1 4 2
direct
0.0 0.0 0.0 
0.49999949588135056 0.0 0.0 
0.0 0.49999949588135056 0.0 
0.7499994142905252 0.24999991840917465 0.4999998368183494 
0.24999991840917465 0.7499994142905252 0.4999998368183494 
0.6489994472532187 0.6489994472532187 0.2979999027437362 
0.3509998854464812 0.3509998854464812 0.7019997708929625 
