System
1.0
8.487091 0.0 0.0
0.0 6.661166 0.0
0.0 2.262076 6.818973
P O
8 12
direct
0.9248621089728045 0.7485254495137442 0.13468505925455015 
0.42486205005979666 0.2514732000928332 0.8653153806945917 
0.07513800885321116 0.2514732000928332 0.8653153806945917 
0.575138067766219 0.7485254495137442 0.13468505925455015 
0.2500000294565039 0.6385181360698697 0.6407572819004923 
0.7500000883695118 0.3614805135367076 0.35924315804864954 
0.2500000294565039 0.26035646548167535 0.5043022218672322 
0.7500000883695118 0.7396421841249019 0.4956982180819097 
0.2500000294565039 0.18123216364837147 0.9701614268214994 
0.7500000883695118 0.8187664859582059 0.029839013127642443 
0.9007631061333153 0.8112552580585394 0.33976114947756036 
0.4007630472203075 0.1887433915480381 0.6602392904715815 
0.09923701169270033 0.1887433915480381 0.6602392904715815 
0.5992370706057082 0.8112552580585394 0.33976114947756036 
0.900702106126128 0.4865365410797737 0.2223730978328105 
0.4007020472131202 0.5134621085268036 0.7776273421163313 
0.7500000883695118 0.47879531308950196 0.532600234316913 
0.2500000294565039 0.5212033365170755 0.46740020563222884 
0.5992980706128955 0.4865365410797737 0.2223730978328105 
0.09929801169988771 0.5134621085268036 0.7776273421163313 
