System
1.0
5.464628 0.0 0.0
0.0 2.738479 12.322547
0.0 -2.738479 12.322547
Bi Nb O Pb
4 4 18 2
direct
0.4669998290826644 0.5679998291108312 0.032200024766815764 
0.9669996460876583 0.4319999274452369 0.9679997317162192 
0.9669996460876583 0.032200024766815764 0.5679998291108312 
0.4669998290826644 0.9679997317162191 0.43199992744523674 
0.4789998246907842 0.3429999465569205 0.8369997661648781 
0.9789996416957781 0.6569998099869767 0.16299999037901897 
0.9789996416957781 0.8369997661648781 0.3429999465569205 
0.4789998246907842 0.16299999037901897 0.6569998099869767 
0.0005309998056593036 0.7049998034129027 0.2949999531309945 
0.500999816639004 0.2949999531309945 0.7049998034129027 
0.48899982103088413 0.36799994655601664 0.9619997296473666 
0.9889996380358781 0.631999809969624 0.03770002698782391 
0.9889996380358781 0.9619997296473666 0.36799994655601664 
0.48899982103088413 0.03770002698782391 0.631999809969624 
0.7249997346572412 0.7459998185643122 0.7489998174688139 
0.22499991765224733 0.2539999379795849 0.2509999390750831 
0.22499991765224733 0.7489998174688139 0.7459998185643122 
0.7249997346572412 0.25099993907508317 0.2539999379795849 
0.6979997445389716 0.029799998416692956 0.12299996438321453 
0.1979999275339776 0.9699997581880664 0.8769997921485115 
0.1979999275339776 0.12299996438321452 0.02979999841669297 
0.6979997445389716 0.8769997921485115 0.9699997581880664 
0.8039997057440305 0.34799992276243963 0.47099987784701214 
0.30399988873903633 0.6519998337814575 0.528999878696885 
0.30399988873903633 0.47099987784701214 0.34799992276243963 
0.8039997057440305 0.528999878696885 0.6519998337814575 
0.4589998320105845 0.7489997873455952 0.25099996919830186 
0.9589996490155784 0.25099996919830186 0.7489997873455952 
