System
1.0
12.773847 0.0 0.0
0.0 12.773847 0.0
0.0 0.0 13.35445
Si O
32 64
direct
0.6222588538594863 0.12461597073333412 0.11460800000000002 
0.8753837944118649 0.37774091128571263 0.385392 
0.12461597073333412 0.37774091128571263 0.6146080000000002 
0.19415295440223582 0.805846810742963 0.7500000000000001 
0.37774091128571263 0.8753837944118649 0.11460800000000002 
0.8753837944118649 0.6222588538594863 0.385392 
0.8734827948583239 0.0 0.618139 
0.8734827948583239 0.0 0.38186100000000006 
0.19415295440223582 0.805846810742963 0.25 
0.12461597073333412 0.6222588538594863 0.6146080000000002 
0.37774091128571263 0.12461597073333412 0.11460800000000002 
0.6222588538594863 0.8753837944118649 0.11460800000000002 
0.805846810742963 0.19415295440223582 0.7500000000000001 
0.8753837944118649 0.37774091128571263 0.6146080000000002 
0.0 0.12651697028687514 0.11813900000000001 
0.805846810742963 0.805846810742963 0.7500000000000001 
0.0 0.8734827948583239 0.11813900000000001 
0.0 0.12651697028687514 0.8818610000000001 
0.12461597073333412 0.37774091128571263 0.385392 
0.805846810742963 0.19415295440223582 0.25 
0.0 0.8734827948583239 0.8818610000000001 
0.805846810742963 0.805846810742963 0.25 
0.12651697028687514 0.0 0.618139 
0.8753837944118649 0.6222588538594863 0.6146080000000002 
0.19415295440223582 0.19415295440223582 0.25 
0.19415295440223582 0.19415295440223582 0.7500000000000001 
0.6222588538594863 0.8753837944118649 0.885392 
0.12651697028687514 0.0 0.38186100000000006 
0.37774091128571263 0.12461597073333412 0.885392 
0.6222588538594863 0.12461597073333412 0.885392 
0.37774091128571263 0.8753837944118649 0.885392 
0.12461597073333412 0.6222588538594863 0.385392 
0.16034796234150236 0.34980391784685116 0.5 
0.35378391691212907 0.0 0.872965 
0.1030909757885837 0.180455957619042 0.8337440000000002 
0.18854795571859698 0.30713892786693126 0.694532 
0.18854795571859698 0.6928608372782676 0.694532 
0.4999998825725995 0.8509038001611104 0.13881600000000002 
0.819543807526157 0.8969087893566152 0.33374400000000004 
0.8969087893566152 0.180455957619042 0.166256 
0.811451809426602 0.6928608372782676 0.694532 
0.180455957619042 0.1030909757885837 0.33374400000000004 
0.4999998825725995 0.14909596498408859 0.861184 
0.180455957619042 0.8969087893566152 0.666256 
0.1030909757885837 0.819543807526157 0.166256 
0.819543807526157 0.8969087893566152 0.666256 
0.811451809426602 0.30713892786693126 0.305468 
0.819543807526157 0.1030909757885837 0.666256 
0.180455957619042 0.1030909757885837 0.666256 
0.8396518028036966 0.6501958472983478 0.5 
0.819543807526157 0.1030909757885837 0.33374400000000004 
0.6928608372782676 0.18854795571859698 0.8054680000000001 
0.6462158482330699 0.0 0.872965 
0.15210496427741046 0.0 0.5 
0.0 0.35378391691212907 0.6270350000000001 
0.180455957619042 0.8969087893566152 0.33374400000000004 
0.30713892786693126 0.811451809426602 0.8054680000000001 
0.18854795571859698 0.6928608372782676 0.305468 
0.30713892786693126 0.18854795571859698 0.8054680000000001 
0.35378391691212907 0.0 0.127035 
0.0 0.35378391691212907 0.372965 
0.0 0.8478948008677883 0.0 
0.6928608372782676 0.18854795571859698 0.19453200000000004 
0.8396518028036966 0.34980391784685116 0.5 
0.8969087893566152 0.819543807526157 0.8337440000000002 
0.8509038001611104 0.4999998825725995 0.361184 
0.0 0.6462158482330699 0.6270350000000001 
0.4999998825725995 0.8509038001611104 0.861184 
0.30713892786693126 0.811451809426602 0.19453200000000004 
0.0 0.15210496427741046 0.0 
0.8969087893566152 0.180455957619042 0.8337440000000002 
0.0 0.0 0.363622 
0.8969087893566152 0.819543807526157 0.166256 
0.18854795571859698 0.30713892786693126 0.305468 
0.14909596498408859 0.4999998825725995 0.361184 
0.0 0.0 0.8636220000000001 
0.8478948008677883 0.0 0.5 
0.1030909757885837 0.180455957619042 0.166256 
0.6462158482330699 0.0 0.127035 
0.811451809426602 0.6928608372782676 0.305468 
0.0 0.0 0.636378 
0.34980391784685116 0.16034796234150236 0.0 
0.0 0.6462158482330699 0.372965 
0.14909596498408859 0.4999998825725995 0.6388160000000002 
0.4999998825725995 0.14909596498408859 0.13881600000000002 
0.30713892786693126 0.18854795571859698 0.19453200000000004 
0.811451809426602 0.30713892786693126 0.694532 
0.6928608372782676 0.811451809426602 0.19453200000000004 
0.0 0.0 0.136378 
0.16034796234150236 0.6501958472983478 0.5 
0.6928608372782676 0.811451809426602 0.8054680000000001 
0.8509038001611104 0.4999998825725995 0.6388160000000002 
0.6501958472983478 0.8396518028036966 0.0 
0.1030909757885837 0.819543807526157 0.8337440000000002 
0.34980391784685116 0.8396518028036966 0.0 
0.6501958472983478 0.16034796234150236 0.0 
