System
1.0
4.665907333 -2.661757153 0.0
4.665907333 2.661757153 0.0
-2.970377942 0.0 5.43343292
B Ba Mg O
2 2 1 6
direct
0.917999565737083 0.917999565737083 0.23100012414257662 
0.08170025443982339 0.08170025443982339 0.7690004132711751 
0.2809999670434404 0.2809999670434404 0.326000175196883 
0.7189998529619883 0.7189998529619883 0.6740003622168687 
0.49999971420366013 0.49999971420366013 0.0 
0.7609996441207887 0.7609996441207887 0.20200010855757783 
0.7699995174050808 0.2220001035420729 0.24000012897930037 
0.2220001035420729 0.7699995174050808 0.24000012897930037 
0.7779997164633558 0.2300003026003478 0.7600004084344513 
0.2300003026003478 0.7779997164633558 0.7600004084344513 
0.23900017588464 0.23900017588463998 0.7980004288561738 
