System
1.0
4.860633 0.0 0.0
0.0 5.885501 0.0
0.0 0.0 9.914198
Fe P O
4 4 16
direct
0.049117030315206055 0.750000127431824 0.27405594471445005 
0.45088327828676533 0.750000127431824 0.7740558438490247 
0.9508835868887366 0.25000004247727464 0.7259438535546994 
0.5491173389171774 0.25000004247727464 0.22594395442012472 
0.5986313694774135 0.750000127431824 0.09381598107441852 
0.9013695563285006 0.750000127431824 0.5938158802089932 
0.40136924772652927 0.25000004247727464 0.9061838171947308 
0.09863106087544207 0.25000004247727464 0.4061839180601562 
0.2888331782688664 0.750000127431824 0.12031997572774406 
0.211167130333105 0.750000127431824 0.6203198748623188 
0.7111674389350764 0.25000004247727464 0.8796798225414053 
0.7888334868708378 0.25000004247727464 0.37967992340683065 
0.8469135227180428 0.750000127431824 0.4427819106772105 
0.6530874030878714 0.750000127431824 0.9427818098117853 
0.1530870944859 0.25000004247727464 0.5572178875919389 
0.3469132141160714 0.25000004247727464 0.057217988457364186 
0.7472134611828097 0.5462050928051991 0.16710796628916103 
0.7527874646231044 0.9537951620584485 0.6671078654237357 
0.25278715602113305 0.0462050078506499 0.8328918319799883 
0.24721315258083829 0.4537950771038993 0.3328919328454137 
0.25278715602113305 0.4537950771038993 0.8328918319799883 
0.24721315258083829 0.0462050078506499 0.3328919328454137 
0.7472134611828097 0.9537951620584485 0.16710796628916103 
0.7527874646231044 0.5462050928051991 0.6671078654237357 
