System
1.0
5.921176 -9.7e-05 -0.000911
2.961096 9.806614 -0.005792
0.002881 -3.589209 7.563821
Li O Ti
7 24 11
direct
0.49799962100999084 0.0026901673036301673 0.2539999671123595 
0.6689989412203371 0.6640004288468313 0.3319997800740279 
0.1659993644675539 0.6700003392158865 0.5849998784193338 
0.3329995192625156 0.33100028862880015 0.6639999564021474 
0.8329991387807538 0.33400045714563065 0.9219999236977036 
0.4189996149192193 0.16600030395883325 0.9600000278178881 
0.9999992889049444 0.00017040756558089288 0.9969999997848584 
0.5899988462895882 0.8200004107144193 0.023999708524020932 
0.09039925172484724 0.8180002845603827 0.04489977781949785 
0.09479964451003615 0.3430001404524015 0.06189990502017809 
0.5629992680784889 0.3430002612509397 0.0632998433525116 
0.9409987073273118 0.6670004795306742 0.19699972548264638 
0.391999148875504 0.6670003381321387 0.19699979800990264 
0.40499953946061573 0.18700019558581782 0.21999992618985525 
0.9079991404568987 0.18100032417227305 0.22599986211924308 
0.25599942374143714 0.48600027100116194 0.35799988511687236 
0.7569990247070858 0.48400040302445285 0.38199982263538723 
0.7739985826043861 1.000000568560013 0.3859996845512099 
0.2249990242461822 1.0000004273118852 0.3869997572108009 
0.05879972559032682 0.333000198474519 0.5299999743647329 
0.6069992847791607 0.3330003398174166 0.5309999020754977 
0.07479928364809633 0.8500003643644916 0.5359998364130545 
0.5759988844528895 0.8480004964392939 0.5599997739051479 
0.9229991961117918 0.15200038910199187 0.6919999294696808 
0.4259996013852919 0.1460002601319162 0.6979999975070036 
0.8929987957186557 0.6660005455198642 0.7199998012991667 
0.44199915844768045 0.6660004293618688 0.7199998608798454 
0.738998662133627 0.9910006272862079 0.8549997536184796 
0.27099903853536467 0.9910005067497513 0.8549998154449931 
0.74199905687582 0.5150004825064936 0.8719998812683895 
0.24299946183787335 0.5130003565220315 0.8929999504978351 
0.25599939721494075 0.49100023660956915 0.11899985216748084 
0.0881996821483928 0.32900016765144313 0.28299993885119645 
0.5789992876899472 0.3290002945114106 0.28599987440962615 
0.08279926776430722 0.8340003248974872 0.29299980742730813 
0.9169991673998333 0.16600035671748287 0.45799989559610466 
0.7509990398133369 0.49900044269541627 0.6249998516211962 
0.7419994583476421 0.004970287861250359 0.6329999844303292 
0.25199985310217393 0.004290161597372892 0.6340000494752615 
0.5799989084996892 0.8420005313995512 0.7979998064580515 
0.4159992008056826 0.6670004587735086 0.9579998955460378 
0.9169987987874171 0.6660005876485839 0.9589998297565756 
