System
1.0
-3.67738293 3.67738293 3.19566538
3.67738293 -3.67738293 3.19566538
3.67738293 3.67738293 -3.19566538
Eu Cr O
2 2 8
direct
0.0 0.0 0.0 
0.24999963857344476 0.750000036954901 0.5000003983814564 
0.750000036954901 0.24999963857344476 0.5000003983814564 
0.49999927714688935 0.49999927714688935 3.019055467666717e-17 
0.3390826097865741 0.5178510122224935 0.17876940243671635 
0.4103149671564238 0.08908297121088692 0.3212309959447401 
0.7678517720305054 0.0890829712131294 0.6787698008181727 
0.33908373101889866 0.160315328582979 0.8212313943261965 
0.8396843469453669 0.6609159445094472 0.17876940243671638 
0.9109167043152165 0.2321479034978406 0.32123099594474014 
0.9109167043174591 0.5896847083719221 0.6787698008181728 
0.4821486633058522 0.6609170657417717 0.8212313943261964 
