System
1.0
-3.780941 0.0 0.0
0.0 0.0 -7.88573
0.0 -7.826658 0.0
Ba Ho Co O
2 2 4 12
direct
0.5000001322422466 0.0 0.24732293679986098 
0.5000001322422466 0.0 0.7526768076632945 
0.5000001322422466 0.5 0.2320479407031863 
0.5000001322422466 0.5 0.7679518037599691 
0.0 0.742019 0.4999998722315777 
0.0 0.257981 0.4999998722315777 
0.0 0.7436450000000001 0.0 
0.0 0.25635500000000006 0.0 
0.0 0.0 0.0 
0.0 0.0 0.4999998722315777 
0.0 0.5 0.4999998722315777 
0.0 0.5 0.0 
0.5000001322422466 0.7092420000000002 0.0 
0.5000001322422466 0.29075800000000007 0.0 
0.5000001322422466 0.7283320000000001 0.4999998722315777 
0.5000001322422466 0.271668 0.4999998722315777 
0.0 0.7117230000000001 0.24334993781510889 
0.0 0.7117230000000001 0.7566498066480466 
0.0 0.28827700000000006 0.7566498066480466 
0.0 0.28827700000000006 0.24334993781510889 
