System
1.0
6.181282116 0.0 0.0
0.005066595 6.1813001 0.0
2.79304997 2.790931936 12.966493748
Li O Sn
8 24 10
direct
0.9150000597643786 0.4190000372880696 0.1670000482718145 
0.32699987178103906 0.35300006727796923 0.33700009741078735 
0.7920001915433402 0.041800076858787796 0.4170001205350098 
0.2569996178913232 0.731000102623904 0.49700014365923234 
0.6689997722319038 0.6650001326138038 0.6670001927982052 
0.6030000505509034 0.0769001541572601 0.8370002419371779 
0.29199967702942264 0.5420001762969254 0.9170002650614006 
0.9810001965586854 0.007360182262970403 0.997000288185623 
0.6799999656274363 0.4650000223390088 0.08110002344218058 
0.22099980837870478 0.4650000225034316 0.08200002370232809 
0.2089995293492494 0.962000032078424 0.09040002613037143 
0.6659996855742992 0.9620000323707312 0.09200002659285589 
0.3719997265448339 0.6680000550182468 0.24200006995077308 
0.37100002518933345 0.12500004641637888 0.24300007023982587 
0.8690002010565645 0.11300004786647277 0.25200007284130094 
0.8689999030358675 0.654000056618677 0.25200007284130094 
0.5619997031141586 0.7870000878183524 0.4110001188006931 
0.028299520695525358 0.7860000881675586 0.4130001193787987 
0.5559999690795343 0.29800008173431486 0.4210001216912209 
0.02219978662666861 0.29700008208352097 0.42300012226932654 
0.714999929096028 0.4300001131005045 0.5810001679396659 
0.7139996305973938 0.9710001220354005 0.5820001682287187 
0.21199946427631838 0.9590001233028024 0.590000170541141 
0.2119997631275283 0.41600011488362665 0.5920001711192465 
0.9180001464219831 0.12200013753114224 0.7420002144771638 
0.374999960404481 0.12200013771383418 0.7430002147662165 
0.3629996807427875 0.6200001474146196 0.7520002173676915 
0.9039998663552846 0.6190001475811339 0.7530002176567444 
0.03729971735331283 0.31200017147987336 0.911000263327084 
0.03549945920958951 0.7790001794003023 0.9130002639051894 
0.547999894127224 0.30600017320972633 0.9210002662176117 
0.5469996368082297 0.7720001811139773 0.9230002667957173 
0.4410000189430632 0.22100001742335157 0.07580002191020084 
0.4389997463540083 0.7140000258374808 0.07820002260392751 
0.6199996851815591 0.8940000610494314 0.2550000737084593 
0.11299951176736112 0.8930000615813294 0.25800007457561763 
0.7919999159981413 0.5420000849509367 0.4170001205350098 
0.47099997790500125 0.19100010832054395 0.576000166494402 
0.9630001466080128 0.1900001086697501 0.5780001670725076 
0.1439997425336509 0.37100014393441677 0.7550002182348499 
0.14299947075642183 0.8630001524419835 0.7580002191020082 
0.7919998481913829 0.5420001762969254 0.9170002650614006 
