System
1.0
3.879502586 -5.974016346 0.0
3.879502586 5.974016346 0.0
-1.827081461 0.0 6.929140584
Cr Cs O
2 6 6
direct
0.16200008423450418 0.16200008423450415 0.1410000118837258 
0.8380004138953434 0.8380004138953433 0.8590000723980176 
0.7320001913879349 0.26800047519281 0.0 
0.2680004751928101 0.7320001913879348 0.0 
0.6300003621672117 0.6300003621672114 0.343000028908638 
0.8070000612888535 0.1930004368409942 0.5000000421408717 
0.19300043684099433 0.8070000612888534 0.5000000421408717 
0.37000013596263615 0.37000013596263603 0.6570000553731055 
0.9070005808371592 0.907000580837159 0.1410000118837258 
0.4100000648768313 0.1540002214588314 0.26600002241894377 
0.15400022145883144 0.41000006487683127 0.26600002241894377 
0.8460002766710164 0.5900004332530162 0.7340000618627996 
0.5900004332530164 0.8460002766710162 0.7340000618627996 
0.09329991749266274 0.09329991749266275 0.8590000723980176 
