System
1.0
-2.781885 2.771947 0.0
2.781885 2.771947 0.0
0.0 -2.771947 -8.981387
Ca Li O Ta
1 2 7 2
direct
0.0 0.0 0.0 
0.7500000952627638 0.2499991965899239 0.49999983298798967 
0.249999196589924 0.7500000952627638 0.49999983298798967 
0.49999945886469815 0.49999945886469815 0.0 
0.6020001443241956 0.10199924565135574 0.20299993219312382 
0.10199924565135575 0.6020001443241956 0.20299993219312382 
0.7199993850052904 0.7199993850052903 0.43899985336345493 
0.2799999068473975 0.2799999068473975 0.5609998126125244 
0.898000046201332 0.3979991475284922 0.7969997337828556 
0.39799914752849225 0.8980000462013321 0.7969997337828556 
0.6139994207859598 0.6139994207859598 0.2279999238425233 
0.38599987106672806 0.385999871066728 0.7719997421334561 
