System
1.0
7.172636 6.549099 0.0
-7.172636 6.549099 0.0
0.0 6.02311 9.052797
Tb Sb Mo O
4 4 8 36
direct
0.6714929423064624 0.32850713358108363 0.7499997514581125 
0.32850705738765623 0.6714928661130349 0.24999991715270414 
0.125351246876049 0.8746488290114971 0.7499997514581125 
0.8746487528180696 0.12535117068262158 0.24999991715270414 
0.6514410407238107 0.6178100594789693 0.9646766803164767 
0.3821900164085769 0.3485590351637354 0.5353228225997482 
0.3485589589703079 0.3821899402151494 0.03532298829433987 
0.6178099832855417 0.6514409645303834 0.46467684601106846 
0.04700910804857678 0.25996398928895686 0.4731708431962487 
0.7400359342117341 0.9529908154521142 0.026828991109159598 
0.9529908916455417 0.7400360104051616 0.5268288254145679 
0.2599640654823844 0.047009184242004336 0.9731706775016571 
0.059005189702420115 0.4341569804896338 0.805496733067007 
0.5658430953979124 0.9409948861851261 0.6945027698492179 
0.9409948099916984 0.5658430192044849 0.19450293554380968 
0.4341569042962062 0.059005113508992624 0.30549689876159863 
0.06489008790384433 0.09496007113456552 0.6019098005335366 
0.9050400047529805 0.9351099879837019 0.8980897023826883 
0.935109911790274 0.9050399285595528 0.39808986807728 
0.09495999494113802 0.06489001171041683 0.10190996622812833 
0.8705338375738969 0.29974615588793474 0.5648618128108431 
0.7002539199996115 0.1294662383136491 0.9351376901053818 
0.12946616212022163 0.7002538438061838 0.43513785579997355 
0.29974607969450734 0.8705337613804695 0.06486197850543478 
0.04547107811747308 0.22177297979830468 0.3239188926567471 
0.7782269437023864 0.954528845383218 0.17608094164866117 
0.9545289215766457 0.7782270198958141 0.6760807759540695 
0.22177305599173217 0.045471154310900506 0.8239187269621554 
0.7774199327499342 0.5955290341859465 0.5793648080047058 
0.4044710417015996 0.22258014313761207 0.9206346949115192 
0.22258006694418445 0.40447096550817213 0.4206348606061108 
0.595528957992519 0.7774198565565067 0.07936497369929746 
0.979170865610783 0.3042912419742978 0.996018669930077 
0.6957088339132482 0.020829210276762922 0.503980832986148 
0.020829134083335386 0.6957087577198207 0.003980998680739661 
0.30429116578087034 0.9791707894173557 0.4960188356246686 
0.14484019211333662 0.6200459271029639 0.7743737433808325 
0.3799541487845821 0.8551598837742095 0.7256257595353924 
0.8551598075807819 0.37995407259115466 0.2256259252299841 
0.6200458509095363 0.1448401159199092 0.2743739090754242 
0.9084708815030457 0.4450021399679904 0.7485437519406151 
0.5549979359195557 0.09152919438450034 0.7514557509756098 
0.09152911819107286 0.5549978597261284 0.2514559166702015 
0.44500206377456264 0.9084708053096181 0.24854391763520678 
0.21027210602980226 0.36577801930803727 0.6998517680766173 
0.6342220565795087 0.789727969857744 0.8001477348396077 
0.7897278936643161 0.634221980386081 0.30014790053419943 
0.36577794311460987 0.2102720298363748 0.1998519337712089 
0.5760090254009638 0.459744090239015 0.8983447022981841 
0.5402559856485311 0.42399105048658237 0.601654800618041 
0.42399097429315485 0.5402559094551036 0.10165496631263256 
0.45974401404558746 0.5760089492075361 0.39834486799277574 
