System
1.0
6.452015 0.0 0.0
0.0 3.697924 0.0
-3.041181 0.0 10.92404
As Li O
6 2 16
direct
0.8179993521098818 0.0 0.0902 
0.1949998188164327 0.500000540844583 0.194 
0.30799969141447175 0.500000540844583 0.451 
0.6919993786442076 0.0 0.549 
0.8049992512422468 0.0 0.8060000000000002 
0.18199971791779943 0.500000540844583 0.9100000000000001 
0.7649993543107431 0.500000540844583 0.341 
0.23499971574793635 0.0 0.659 
0.3209997409958432 0.500000540844583 0.0661 
0.910999281108862 0.500000540844583 0.0833 
0.11899988251741316 0.0 0.163 
0.671999450094699 0.0 0.18800000000000003 
0.43699961391936176 0.500000540844583 0.306 
0.07009989607905742 0.500000540844583 0.32 
0.8079993067287454 0.0 0.433 
0.38799962817846195 0.0 0.459 
0.6119994418802174 0.500000540844583 0.541 
0.19199976332993393 0.500000540844583 0.567 
0.9299991739021268 0.0 0.68 
0.5629994561393176 0.0 0.694 
0.32799961996398036 0.500000540844583 0.812 
0.8809991875412663 0.500000540844583 0.837 
0.08889978898081538 0.0 0.9170000000000001 
0.6789993290473373 0.0 0.934 
