System
1.0
-4.929389 -8.736932 -0.119867
-2.405921 4.335221 0.003723
1.602692 -0.022714 -4.717242
Fe Li O
4 6 11
direct
0.580999900493292 0.8599996900324752 0.037999101969539366 
0.34799999319428326 0.37599943602282626 0.5149997576374757 
0.07270003315345222 0.8189993383413714 0.9569998372914087 
0.9039999981761968 0.16399869584888566 0.9969997425119724 
0.7349999045488514 0.4939995727475371 0.006159223099174523 
0.9869998975397043 0.9599991122357776 0.47899896676434367 
0.6719999444654189 0.6669992755168271 0.49099935745517564 
0.15299999741601727 0.6229995857711637 0.5209997271219634 
0.5289999982533853 0.042399261420132194 0.5419998658668734 
0.2560000394989362 0.4609991587947559 0.9849999599630248 
0.9859998955526403 0.5889992618317702 0.22099909412582763 
0.799999893958526 0.9319994119796229 0.23299899952594222 
0.6039999534527515 0.21399945879932403 0.23399957974713015 
0.14899999687048282 0.21599974068656103 0.25299987501388294 
0.4619999465706396 0.6069995726438813 0.26399943310385154 
0.1940000465436216 0.041599337490196765 0.734000159660369 
0.36499999158074253 0.7239993014847388 0.7349996187200014 
0.5229999939166188 0.4379991640734345 0.7389997016517218 
0.8809999442200133 0.7909989419245338 0.7779992671032864 
0.7030000031993647 0.08479896361600724 0.7989998368455163 
0.052300043173799625 0.4299994240911187 0.8000000309041676 
