System
1.0
7.350054 0.0 0.0
0.0 7.350054 0.0
0.0 0.0 7.350054
Na Be Si O
10 4 4 17
direct
0.34082618548227567 0.6591743587317094 0.34082618548227567 
0.6591743587317094 0.6591743587317094 0.6591743587317094 
0.0 0.0 0.5000002721069925 
0.6591743587317094 0.34082618548227567 0.34082618548227567 
0.5000002721069925 0.5000002721069925 0.0 
0.34082618548227567 0.34082618548227567 0.6591743587317094 
0.0 0.5000002721069925 0.5000002721069925 
0.0 0.5000002721069925 0.0 
0.5000002721069925 0.0 0.5000002721069925 
0.5000002721069925 0.0 0.0 
0.867463472085496 0.867463472085496 0.867463472085496 
0.1325370721284889 0.867463472085496 0.1325370721284889 
0.867463472085496 0.1325370721284889 0.1325370721284889 
0.1325370721284889 0.1325370721284889 0.867463472085496 
0.780186424588132 0.780186424588132 0.2198141196258529 
0.2198141196258529 0.2198141196258529 0.2198141196258529 
0.780186424588132 0.2198141196258529 0.780186424588132 
0.2198141196258529 0.780186424588132 0.780186424588132 
0.26036614169481836 0.9997625440844621 0.26036614169481836 
0.3463481884874252 0.6536523557265597 0.6536523557265597 
0.9997625440844621 0.7396344025191665 0.7396344025191665 
0.7396344025191665 0.9997625440844621 0.7396344025191665 
0.00023800012952292842 0.26036614169481836 0.7396344025191665 
0.9997625440844621 0.26036614169481836 0.26036614169481836 
0.26036614169481836 0.26036614169481836 0.9997625440844621 
0.6536523557265597 0.6536523557265597 0.3463481884874252 
0.7396344025191665 0.26036614169481836 0.00023800012952292842 
0.7396344025191665 0.7396344025191665 0.9997625440844621 
0.26036614169481836 0.00023800012952292842 0.7396344025191665 
0.6536523557265597 0.3463481884874252 0.6536523557265597 
0.3463481884874252 0.3463481884874252 0.3463481884874252 
0.00023800012952292842 0.7396344025191665 0.26036614169481836 
0.7396344025191665 0.00023800012952292842 0.26036614169481836 
0.26036614169481836 0.7396344025191665 0.00023800012952292842 
0.0 0.0 0.0 
