System
1.0
2.744879 -1.584757 -4.341783
-2.744879 -1.584757 -4.341783
0.0 3.169513 -4.341783
In O Ti
2 6 2
direct
0.24999993611064303 0.24999993611064303 0.25000064599935173 
0.749999808331929 0.7499998083319291 0.750001937998055 
0.7499998213834375 0.35399996565203945 0.14600107666558615 
0.6459998888135575 0.85399981303611 0.2500015073318207 
0.14600000354076306 0.7499997834947136 0.35400107666558617 
0.853999740901809 0.2499999609478583 0.6460015073318206 
0.35399985562901465 0.14599993140646214 0.7500010766655861 
0.24999992305913468 0.6459997787905328 0.8540015073318207 
0.0 0.0 0.0 
0.49999987222128606 0.49999987222128606 0.5000012919987035 
