System
1.0
15.722282 3.272366 0.0
-15.722282 3.272366 0.0
0.0 0.043126 10.852689
K Fe P O
6 10 12 48
direct
0.9397669868369023 0.06022987495274789 0.7499999308927094 
0.785632623226706 0.5090645880450402 0.9877189089885547 
0.06023018023737635 0.9397682921216578 0.24999997696423648 
0.5090648933303433 0.7856329285120092 0.48771895506008184 
0.4909332737433876 0.21436523856172182 0.512280952796864 
0.21436554384702505 0.49093357902869084 0.012280998868391154 
0.7032710256866879 0.8029840383709804 0.07759999284969901 
0.8029837330856773 0.7032707204013847 0.577599946778172 
0.8066852751924338 0.19331319716660034 0.24999997696423648 
0.1970144339880536 0.2967274466723462 0.422399961078774 
0.8104419703850511 0.18955589140337661 0.7499999308927094 
-6.42676222165357e-07 0.49999942092778443 0.49999995392847296 
0.29672714138704304 0.19701412870275042 0.922399915007247 
0.18955619668867985 0.8104422756703543 0.24999997696423648 
0.49999972621308764 -3.3739091899970156e-07 0.0 
0.19331289188129716 0.8066849699071305 0.7499999308927094 
0.2947895568988908 0.9967876461986618 0.9975359080839865 
0.21688861894003705 0.277528626653931 0.1228779886776458 
0.7831095481336939 0.7224695404197999 0.8771219191793 
0.003210215589766227 0.7052083048895369 0.5024639537014325 
0.7224698457051031 0.7831098534189971 0.3771219652508272 
0.7181152639256201 0.2818832084334141 0.24999997696423648 
0.2775283213686278 0.21688831365473388 0.6228779426061188 
0.7052086101748399 0.0032105208750693253 0.0024639997729595147 
0.9967879514839646 0.29478986218419395 0.49753595415551344 
0.2818829031481108 0.7181149586403168 0.7499999308927094 
0.7215129590725696 0.278484902715858 0.7499999308927094 
0.2784852080011612 0.7215132643578729 0.24999997696423648 
0.8390299118291301 0.1331138220309584 0.8826429186705783 
0.7683868178245703 0.7374358138873551 0.4320829601865528 
0.8360118114593449 0.6203577840264279 0.5112509528917715 
0.16398635561438615 0.3796403830473031 0.48874895496517445 
0.11997657969135593 0.00797256544354961 0.5719769472962923 
0.5010500635735876 0.6103060774718263 0.4098459622355378 
0.7137923802931008 0.21107031634283402 0.14154898695724283 
0.7889281560162 0.2862060920659332 0.35845096697123013 
0.7943096104196163 0.7491126046701958 0.7356199322177267 
0.21107001105753087 0.7137920750077977 0.6415489408857159 
0.20568855665411448 0.250885562403535 0.2643799756392194 
0.3796400777619999 0.163986050329083 0.9887489088936475 
0.5199345018968545 0.8952125496352233 0.9979609080448256 
0.2625626584716789 0.23161165453446372 0.0679169937419202 
0.749112909955499 0.7943099157049195 0.2356199782892536 
0.15671379985641726 0.8501428880661427 0.8855139184060358 
0.880021587382375 0.9920256016301814 0.42802296056065353 
0.4989481035001433 0.3896920896019046 0.590153945621408 
0.38969239488720775 0.4989484087854464 0.0901539916929351 
0.8952128549205265 0.5199348071821578 0.4979609541163526 
0.49747769335297093 0.8789697418818102 0.7224829334282099 
0.5025204737207599 0.12102842519192063 0.2775169744287361 
0.13311412731626154 0.8390302171144334 0.3826429647421054 
0.11809245651918839 0.5063515059088444 0.2246079793039329 
0.8819057105545426 0.4936466611648867 0.775391928553013 
0.8668840397574693 0.16096794995929758 0.6173569431148407 
0.8789700471671134 0.49747799863827413 0.2224829794997369 
0.992025296344878 0.8800212820970716 0.9280229144891265 
0.8501431933514458 0.15671410514172043 0.3855139644775627 
0.20823518264626695 0.7176182474438663 0.3588329669360315 
0.16096825524460076 0.8668843450427726 0.1173569891863676 
0.4800636651768762 0.10478561743850746 0.002038999812120313 
0.7374355086020521 0.7683865125392673 0.9320829141150258 
0.717617942158563 0.20823487736096366 0.8588329208645044 
0.7917629844274641 0.28237991962986464 0.6411669409209145 
0.25088525711823184 0.20568825136881128 0.7643799295676923 
0.8432843672173135 0.14985527900758824 0.1144859894509103 
0.620358089311731 0.8360121167446478 0.0112509989632985 
0.10478531215320432 0.4800633598915731 0.5020389537405934 
0.2823802249151678 0.7917632897127673 0.14116698699244148 
0.007972870728852792 0.11997688497665909 0.0719769933678194 
0.28620578678062997 0.7889278507308969 0.8584509208997031 
0.14985497372228515 0.8432840619320104 0.6144859433793832 
0.23161134924916058 0.2625623531863758 0.5679169476703931 
0.6103057721865232 0.5010497582882845 0.909845916164011 
0.12102811990661747 0.5025201684354568 0.777516928357209 
0.4936469664501898 0.8819060158398457 0.27539197462454007 
0.5063512006235412 0.11809215123388522 0.7246079332324059 
