System
1.0
-0.00201536 5.31069633 5.31067945
5.31076268 -0.00205757 5.31072181
5.31073448 5.31070957 -0.00202809
Eu Zr O
4 4 14
direct
0.6249945008313799 0.1250104619218558 0.6250038241970817 
0.6249893654201698 0.6250058679420439 0.12501040879018166 
0.12499914121886253 0.625004523757521 0.624997468012718 
0.6249989942990017 0.6249994389187249 0.6250005495423266 
0.12501946883989165 0.1249951158035669 0.12501005191180015 
0.624975861963043 0.12500507092556834 0.1249969634366058 
0.124997007754636 0.12500961674704442 0.6249786526615168 
0.1250083823190188 0.624980972790789 0.12501041725458042 
0.21107716726708917 0.7889036336415804 0.7889090742799115 
0.7889255185093353 0.7888727247163659 0.21108958050185386 
0.7889194705438868 0.21109090353782833 0.7888767474152993 
0.2110407903850741 0.7889332626748443 0.21107069784398824 
0.21104343237655143 0.21106767153989647 0.7889411947494418 
0.7889551235862972 0.2110643426293012 0.21106408097740403 
0.4610358203012943 0.03895522926863272 0.03895527590947293 
0.038971053103753414 0.03893322198651816 0.46104872057739343 
0.03897424426279398 0.4610521728987994 0.03893264666869898 
0.46107480111944865 0.03891615029110154 0.461106070970305 
0.7499639431904255 0.7499854546638579 0.7499843514382101 
0.46106971231787225 0.46111279116449816 0.03891536706952546 
0.03892885516315327 0.4610925938746822 0.4610828317420385 
0.5000278554126596 0.5000224831740384 0.5000217476493802 
