System
1.0
6.0719 0.0 -0.01331
0.0 7.67124 0.0
-0.545136 0.0 10.107366
Ba Fe O
8 4 16
direct
0.7550000506755298 0.851 0.08129996789219068 
0.22700012029984298 0.5049999999999999 0.19299992377850925 
0.27300019135778136 0.004709999999999999 0.3069998787564888 
0.7450002611690891 0.3509999999999999 0.4189998345243284 
0.25500036214615945 0.649 0.5809997705456678 
0.7270004319574674 0.9949999999999999 0.6929997263135073 
0.7730005030154058 0.49499999999999994 0.806999681291487 
0.24500057282671342 0.149 0.9189996370593265 
0.745000051548171 0.278 0.08269996733928868 
0.7550002599224586 0.7779999999999999 0.41699983531418844 
0.2450003633927899 0.22199999999999998 0.5829997697558078 
0.255000571580083 0.722 0.9169996378491865 
0.3020000461876599 0.8339999999999999 0.07409997073568672 
0.7830000642014707 0.508 0.1029999593222096 
0.006820084147558555 0.18799999999999997 0.1349999466844495 
0.4930000991071246 0.23299999999999998 0.1589999372061294 
0.007010212550499756 0.7329999999999999 0.3409998653288687 
0.4930002275100658 0.6879999999999998 0.3649998558505486 
0.7170002474561535 0.007779999999999999 0.39699984321278853 
0.1980002655322959 0.334 0.4259998317598183 
0.8020003577829528 0.6659999999999999 0.5739997733101778 
0.2830003758590949 0.992 0.6029997618572076 
0.5070003958051829 0.31199999999999994 0.6349997492194476 
0.993000410764749 0.267 0.6589997397411275 
0.507000524208124 0.7669999999999999 0.8409996678638667 
0.99300053916769 0.8119999999999999 0.8649996583855467 
0.21700055911377797 0.49199999999999994 0.8969996457477866 
0.6980005771899203 0.16599999999999998 0.9259996342948166 
