System
1.0
5.254758 -3.033836 0.0
5.254758 3.033836 0.0
-3.503173 0.0 4.954235
Cr O Ti
2 8 4
direct
0.0 0.0 0.0 
0.24999943844767802 0.24999943844767802 0.7499992430726004 
0.8619993764884951 0.41499996584060345 0.13799986072535847 
0.4149999658406034 0.8619993764884952 0.13799986072535847 
0.8619995860988183 0.8619995860988183 0.13799986072535847 
0.3879997497162593 0.3879997497162593 0.16499983347597208 
0.8619993081241216 0.8619993081241216 0.5849994095966282 
0.38799947174156263 0.38799947174156263 0.6119993823472418 
0.8349990919997776 0.3879996813518859 0.6119993823472418 
0.3879996813518859 0.8349990919997776 0.6119993823472418 
0.6249992944567416 0.12499995368728778 0.3749996215363002 
0.12499995368728781 0.6249992944567417 0.3749996215363002 
0.6249995289201905 0.6249995289201905 0.3749996215363002 
0.6249992179865254 0.6249992179865254 0.8749991169180338 
