System
1.0
4.39284993 -0.01540982 -0.00014597
-0.71539696 8.18375647 -0.0010932
-0.00079565 -0.00225569 15.86826651
Cu Bi Se O
2 4 8 24
direct
0.0 0.0 0.0 
8.491130374196224e-07 0.5000000491960241 0.49999978921337923 
0.5007566430844473 0.5403601025527157 0.2723938982971791 
0.49924504284251514 0.45964001788108794 0.7276059340969105 
0.4990859222490826 0.9595590666141062 0.7726574333243459 
0.5009157636778798 0.04044105381969753 0.22734239906974357 
0.4472455249503572 0.255114796906333 0.4290528877889223 
0.025992236116185605 0.37051249796559393 0.1263614640890849 
0.5528004656922555 0.24503070796186396 0.9292060466518152 
0.44720122023470715 0.7549694124719399 0.07079378574227438 
0.974009449810777 0.6294876224682098 0.8736383683050047 
0.9737972730754594 0.12943277708419793 0.6267378533951365 
0.5527561609766055 0.7448853235274708 0.5709469446051673 
0.026204412851503142 0.8705673433496058 0.3732619789989529 
0.5397118475864507 0.7606307085419352 0.17761277460679023 
0.41338777684795186 0.888491013176341 0.3524602782900564 
0.9539566975286368 0.9763204993416861 0.2806447036546021 
0.5868166910008731 0.6115975306064916 0.8527837381645325 
0.06662939052959205 0.8288040947314045 0.8509653526466184 
0.5866139090779345 0.11150910725693401 0.647538554104253 
0.7946296385695846 0.2835448369925316 0.4757039700211864 
0.6691216603526731 0.551854249561687 0.5717456229139177 
0.06628423271448781 0.32871593339520855 0.6495350377112777 
0.7947086135745056 0.7834474932742674 0.024247468489286963 
0.5399239223524053 0.2607448000648454 0.3222423336772486 
0.9337174532124748 0.6712841870385952 0.3504647946828118 
0.9536715101291636 0.47610764197517136 0.2190404380133627 
0.6690600932723505 0.05198552312140095 0.9283430053019182 
0.4131849949260895 0.3884025898273122 0.14721609422955717 
0.046044988398326055 0.023679621092117773 0.7193551287394875 
0.46007776357455726 0.7392553203689585 0.6777574987168411 
0.46028983834051196 0.23936941189186853 0.8223870577872993 
0.2053720473573781 0.7164552834412721 0.5242958623729033 
0.33088002557428947 0.4481458708721167 0.42825420948017184 
0.9333722953973704 0.17119602570239914 0.14903447974747117 
0.330941592654612 0.9480145973124028 0.07165682709217128 
0.04633017579779918 0.5238924784586324 0.7809593943807269 
0.2052930723524571 0.21655262715953635 0.9757523639048027 
