System
1.0
0.0 9.26242 9.667
3.347376 0.0 9.667
3.347376 9.26242 0.0
Cs Al Si O
4 4 6 20
direct
0.1329267467756871 0.9713572532243129 0.27851225322431283 
0.6172037467756872 0.27851225322431283 0.9713572532243127 
0.9714874480345824 0.6327965519654178 0.11707355196541774 
0.27864244803458227 0.11707355196541773 0.6327965519654178 
0.7333987582419683 0.5888372417580318 0.6802232417580316 
0.9975407582419682 0.6802232417580318 0.5888372417580318 
0.5697764595008633 0.2524595404991367 0.5166015404991368 
0.6611624595008634 0.5166015404991368 0.2524595404991366 
0.2512632972318649 0.24873670276813514 0.24873670276813512 
0.0012641934551798385 0.9987358065448202 0.9987358065448202 
0.511657746012105 0.5702502539878951 0.6783412539878949 
0.23975074601210494 0.6783412539878951 0.5702502539878951 
0.571658447271 0.010249552728999958 0.7383425527290002 
0.679749447271 0.738342552729 0.010249552729000043 
0.022079458284987034 0.351654541715013 0.415371541715013 
0.21089445828498704 0.41537154171501306 0.3516545417150129 
0.8346281595438821 0.03910584045611791 0.227920840456118 
0.8983451595438822 0.2279208404561179 0.03910584045611796 
0.6069007690127801 0.54360123098722 0.7434862309872198 
0.10601276901278009 0.74348623098722 0.54360123098722 
0.5065134702710776 0.14398752972892243 0.6430995297289224 
0.7063984702710777 0.6430995297289224 0.14398752972892223 
0.604611907322742 0.8297180926772582 0.6888570926772581 
0.8768139073221444 0.6888570926778557 0.8297170926778554 
0.5611426085810396 0.3731863914189605 0.6453883914189605 
0.4202826085810395 0.6453883914189605 0.3731863914189605 
0.6229876091785217 0.5627673908214784 0.45680739082147837 
0.35743660917852166 0.45680739082147837 0.5627673908214784 
0.7931929079202241 0.8925630920797758 0.6270120920797759 
0.6872329079202242 0.6270120920797759 0.8925630920797758 
0.23832502382759047 0.8202589761724095 0.8933089761724095 
0.04810702382759052 0.8933089761724096 0.8202589761724096 
0.3566901276042756 0.20189387239572446 0.011675872395724391 
0.42974012760427566 0.01167587239572447 0.2018938723957244 
