System
1.0
5.771213 -5.752089 5.873057
-5.771213 -5.752089 -5.873057
8.21405 5.752089 -5.879706
Bi Ca O
16 8 32
direct
0.1439997981918912 0.8399997334002327 0.013699700278636167 
0.8529999425369756 0.5369999430778374 0.06600011579201824 
0.8409998621100376 0.9299997693607605 0.21299990232886862 
0.251999984794444 0.2699998924981971 0.2269999285783477 
0.5420000785607572 0.024900013474006027 0.27300014312923493 
0.21699989871341246 0.6279997489352186 0.28699974465684885 
0.970999941984057 0.7869997841368965 0.4339999562981585 
0.32600006481135835 0.1299998871954957 0.48599994679135844 
0.6739999077185475 0.8699996855006396 0.5139997722845355 
0.028600030512642104 0.2129997884919438 0.5659997626076936 
0.7830000738164934 0.37199982376091684 0.712999974419045 
0.45799989399483515 0.9749995592563381 0.7269995759891694 
0.7479999877354616 0.7299996801979383 0.7729997904975463 
0.15900011031712152 0.07039980319854001 0.7869998165769836 
0.1470000299929301 0.462999629618298 0.9339996032838758 
0.8560001742941004 0.1599998393719388 0.9860000188815349 
0.5589999992277083 0.2299999947589884 0.08130011702023736 
0.5009999146705993 0.586999842168674 0.16299991765038727 
0.9240000392165245 0.33799995441215097 0.3370001544397895 
0.6489999924287477 0.47799983947121844 0.41899995498566206 
0.35099998010115796 0.5219997332249169 0.5809997640902318 
0.07609993332168288 0.6619996183008082 0.662999564678615 
0.4990000578593063 0.4129997305274613 0.8369998014255067 
0.4409999733461115 0.769999577861111 0.9189996019713794 
0.629999939405965 0.4679999332201064 0.050000054820717156 
0.38299979205607043 0.9779997100025052 0.07839972503839691 
0.180999856276259 0.6789997710539019 0.10699975823910002 
0.1999999256994361 0.4199998605700608 0.1159998738898227 
0.5959998496183133 0.8549997735684709 0.1349998519731908 
0.8579999991749503 0.3619999842684227 0.14300017067966464 
0.9150000709075691 0.10800007770682074 0.15500029951606217 
0.46099997161932504 0.381999892387537 0.2149999731845695 
0.6670000339012052 0.2459999558266943 0.28500009890560707 
0.4529998928889965 0.7599997287834458 0.3449997725741144 
0.7189999280301291 0.7159997855451367 0.3569999009854075 
0.21999995327680094 0.4609997867991722 0.36499979501252655 
0.8040001015839692 0.08320000947522233 0.3840001985404375 
0.07200004449632258 0.07399988719120841 0.39299988874661734 
0.39900001655162437 0.30499985583256345 0.4219999214098464 
0.917999993097627 0.5799998419771867 0.45000001726945954 
0.08159997939907199 0.41999973065165347 0.5499997016363927 
0.6009999559782813 0.6949997168635719 0.5779997976660476 
0.9279999280335832 0.9259996855049271 0.6069998303292766 
0.19599987089456325 0.9169995631524955 0.6159995204504355 
0.7800000192531048 0.5389997858969632 0.6349999240633674 
0.2810000444997764 0.28399978715099844 0.6429998180904863 
0.5470000796409094 0.23999984391268964 0.6549999465017795 
0.33299993862870053 0.7539996168694411 0.7149996201702868 
0.5390000009105809 0.6179996803085984 0.7849997458913245 
0.08519990163893996 0.8919994950229623 0.8449994196448526 
0.14199997335495537 0.6379995884277125 0.8569995483962293 
0.4040001229115923 0.1449997991276644 0.8649998671027032 
0.8000000468304697 0.5799997121260745 0.8839998451860713 
0.8190001162536465 0.3209998016422336 0.892999960836794 
0.6170001804296407 0.02239986245541339 0.9219999937550858 
0.3700000331239408 0.5319996394760289 0.9499996642551767 
