System
1.0
4.045038 0.0 0.0
0.0 4.045038 0.0
0.0 0.0 4.045038
La O Ta
1 3 1
direct
0.0 0.0 0.0 
0.499999752783656 0.499999752783656 0.0 
0.499999752783656 0.0 0.499999752783656 
0.0 0.499999752783656 0.499999752783656 
0.499999752783656 0.499999752783656 0.499999752783656 
