System
1.0
0.0 1.824622 1.824622
1.824622 0.0 1.824622
1.824622 1.824622 0.0
Be O
1 1
direct
0.0 0.0 0.0 
0.500000548059322 0.5000005480593219 0.5000005480593219 
