System
1.0
-2.883453 4.994286 0.0
2.883453 4.994286 0.0
0.0 3.329524 -4.814026
Ir La O
2 2 6
direct
0.8379996587394981 0.8379996587394981 0.4869995953494266 
0.16200021777084764 0.16200021777084764 0.5129995737459052 
0.6309995671073331 0.6309995671073332 0.10699991109320049 
0.3690003094030126 0.3690003094030125 0.8929992580021313 
0.5600000688198168 0.2099997046727013 0.28799976069945554 
0.9419997923317819 0.5599993948912161 0.28799976069945554 
0.20999935297772127 0.9420001145654026 0.28799976069945554 
0.7900005239008916 0.05759976189704198 0.7119994083958763 
0.05760008413066249 0.44000048198739666 0.7119994083958763 
0.439999807690529 0.7900001718376446 0.7119994083958763 
