System
1.0
6.991 0.0 0.0
0.0 2.684316 4.649373
0.0 -2.684316 4.649373
Cr O Ti Zn
2 10 2 2
direct
0.5 0.3330002148678208 0.3330002148678208 
0.0 0.6670004303808903 0.6670004303808902 
0.5 0.14000009033481955 0.14000009033481955 
0.5 0.7189998457401507 0.14000070852849197 
0.0 0.859999936720219 0.2810007995085602 
0.245 0.3330002148678208 0.3330002148678208 
0.755 0.3330002148678208 0.3330002148678208 
0.255 0.6670004303808903 0.6670004303808902 
0.745 0.6670004303808903 0.6670004303808902 
0.5 0.14000070852849203 0.7189998457401507 
0.0 0.2810007995085602 0.859999936720219 
0.0 0.8600005549138915 0.8600005549138915 
0.25 0.0 0.0 
0.75 0.0 0.0 
0.0 0.3330002148678208 0.3330002148678208 
0.5 0.6670004303808903 0.6670004303808902 
