System
1.0
7.35596209 0.00515991 -0.58047656
-1.47570825 10.92032769 -2.91487551
0.03286036 0.0336 11.56552973
Si O
16 32
direct
0.702170438750884 0.44177107949963196 0.12156513668125253 
0.5927160098726711 0.8567892022626112 0.355585780863015 
0.43469194290908125 0.6393815999664326 0.14213326159782202 
0.959098808312752 0.7634025887106874 0.4294493504433955 
0.40728451373694374 0.1432105757698407 0.6444148517872952 
0.666350234920191 0.13454226518923135 0.4425068431154823 
0.21996024225962785 0.4100552507545493 0.4292846802461653 
0.5653085807005336 0.3606181780660195 0.8578673710524882 
0.3846672433504713 0.6384983606414343 0.6450345753296316 
0.29783008485873075 0.5582286985328198 0.8784354959690576 
0.04090171529686276 0.23659718932176452 0.5705512822069148 
0.9201002850676859 0.4619836731945542 0.7575883777453012 
0.6153332802591436 0.3615014173910176 0.3549660573206786 
0.07990023854192893 0.5380161048378977 0.24241225490500895 
0.3336502886894238 0.8654575128432206 0.557493789534828 
0.7800402813499868 0.5899445272779027 0.570715952404145 
0.4930921898966216 0.7757513204217731 0.22716769483692792 
0.402198594661394 0.0010068660615118782 0.6423216712918749 
0.13276308889967947 0.8650566347991064 0.4904350486857836 
0.8672374347099353 0.13494314323334555 0.5095655839645266 
0.36698163922799254 0.6489261185624576 0.009348386721255833 
0.2015410907495711 0.17356177123241628 0.6224153290854644 
0.09663972900850483 0.44372551473918215 0.3245617258976543 
0.610803568119264 0.5667459137723281 0.13835665111576073 
0.90336079460111 0.5562742632932698 0.6754389067526558 
0.8904037216137501 0.699576872930108 0.5305540551158446 
0.1095968019958645 0.30042290510234404 0.4694465775344655 
0.3549684587803632 0.6245503338903194 0.7770275285892568 
0.7366915906497258 0.47160858284551876 0.45645404063856965 
0.5978019289482207 0.99899291197094 0.35767896135843513 
0.6330188843816222 0.3510736594699943 0.9906522459290543 
0.32507411135610614 0.7682573835992912 0.6370764217520221 
0.26330893295988894 0.5283911951869331 0.5435465920117405 
0.4038478127830223 0.3657181784673238 0.3775448929138337 
0.5069083337129933 0.22424845761067877 0.7728329378133822 
0.27320831568862186 0.5653737472146412 0.19251396513435678 
0.02304489081865147 0.6642016185337596 0.3199798491581455 
0.5961527108265925 0.6342815995651282 0.6224557397364764 
0.7984594328600437 0.8264380068000357 0.3775853035648459 
0.4766974665104863 0.8263781098167523 0.4598777823434026 
0.9222698977433512 0.475917070185281 0.13296127625210116 
0.3891969554903507 0.4332538642601238 0.8616439815345495 
0.9769556327909633 0.3357981594986923 0.6800207834921647 
0.6450320648292517 0.37544944414213255 0.22297310406105333 
0.07773062586626368 0.5240827078471708 0.867039356398209 
0.6749264122535088 0.23174239443316053 0.362924210898288 
0.7267922079209926 0.4346260308178107 0.8074866675159533 
0.5233030570991285 0.17362166821569952 0.5401228503069075 
