System
1.0
4.0903366 4.97034527 -0.02364299
-4.0903366 4.97034527 -0.02364299
-0.0 3.92850656 5.16581326
La B O
2 6 12
direct
0.20005391815566778 0.7999446995099923 0.7499998881727389 
0.7999449961612132 0.20005421480688865 0.2499995753516459 
0.7777138379888943 0.22228477967676571 0.7499998881727389 
0.7959491763699649 0.6577000812864056 0.4184994871747547 
0.3422991296816964 0.20405003459813717 0.08149966352853712 
0.22228507632798675 0.7777141346401151 0.2499995753516459 
0.6576997846351845 0.7959488797187438 0.9184997999958476 
0.20404973794691614 0.3422988330304754 0.5814999763496301 
0.7895793452429957 0.41606151572126315 0.510195468650997 
0.583937101944397 0.21041927242266428 0.9898043076944807 
0.9911251760058447 0.22073654637400938 0.7845255466684837 
0.7792620712916506 0.008873441659815313 0.715474229676994 
0.008873738311036243 0.7792623679428715 0.21547391685590106 
0.22073684302523044 0.9911254726570657 0.28452523384739076 
0.617694126827107 0.7868982161800258 0.5017655977744092 
0.2131004014856343 0.38230449083855317 0.9982341785710684 
0.38230478748977414 0.2131006981368553 0.4982338657499756 
0.7868985128312467 0.617694423478328 0.0017652849533162547 
0.416061812372484 0.7895796418942167 0.010195155829904004 
0.2104195690738853 0.583937398595618 0.48980399487338777 
