System
1.0
3.01801796 -5.73042986 -0.0
3.01801796 5.73042986 0.0
-0.0 0.0 8.29334275
Mg V O
6 4 16
direct
0.49999966203007273 0.4999996620300727 0.0 
0.0 0.0 0.5000001657956866 
0.11384344434146994 0.3861562176886028 0.75000024869353 
0.38615621768860275 0.11384344434146991 0.2500000828978433 
0.6138431063715427 0.8861558797186754 0.75000024869353 
0.8861558797186756 0.6138431063715425 0.2500000828978433 
0.12027058130722529 0.8797287427529202 0.8802205118734315 
0.8797287427529202 0.12027058130722516 0.11977981971794174 
0.3797287549684085 0.620270569091737 0.3802203460777449 
0.620270569091737 0.3797287549684084 0.6197799855136283 
0.8476909136967502 0.6122830494479943 0.5004697359513921 
0.6122830494479944 0.8476909136967502 0.49953059563998137 
0.652308072393468 0.8877159366422238 0.00046957015570536114 
0.8877159366422238 0.6523080723934678 0.9995307614356679 
0.1523084103633952 0.387716274612151 0.49953059563998137 
0.387716274612151 0.15230841036339512 0.5004697359513921 
0.3476912516666775 0.11228338741792164 0.9995307614356679 
0.11228338741792171 0.34769125166667747 0.00046957015570536114 
0.997369809878834 0.0026295141813114462 0.7459566973527236 
0.002629514181311448 0.9973698098788341 0.2540436342386496 
0.24841900817643395 0.7515803158837115 0.7729118062908023 
0.7515803158837115 0.24841900817643386 0.227088525300571 
0.25158032809919983 0.7484189959609456 0.2729116404951157 
0.7484189959609456 0.2515803280991998 0.7270886910962577 
0.4973698220943223 0.5026295019658231 0.7540438000343364 
0.5026295019658231 0.49736982209432223 0.24595653155703703 
