System
1.0
4.85315831 0.0 -0.0
-2.42657965 4.20295917 0.0
0.0 0.0 4.89477796
Cd As O
1 2 6
direct
0.0 0.0 0.0 
0.6666667589747528 0.333332934173442 0.4999997916147406 
0.33333286617654945 0.6666668683466865 0.4999997916147406 
0.6239371861178706 0.6239372967849185 0.7089648845242141 
0.37606244904496033 0.0 0.7089648845242141 
-1.0011528746930847e-08 0.37606250573521005 0.7089648845242141 
0.6239372027283173 0.0 0.2910346987052671 
-1.6610446637545203e-08 0.6239372967849185 0.2910346987052671 
0.3760624390334316 0.37606250573521005 0.2910346987052671 
