System
1.0
7.138136 -8.77896 0.0
7.138136 8.77896 0.0
0.0 0.0 10.22529
Na Li Fe Si O
8 4 4 24 60
direct
0.9157267198149658 0.08427271981496581 0.748421 
0.5842727198149659 0.4157267198149659 0.248421 
0.08427271981496587 0.9157267198149658 0.251579 
0.41572671981496584 0.5842727198149659 0.751579 
0.9742605797224488 0.5257385797224488 0.75 
0.5257385797224488 0.9742605797224488 0.25 
0.025738859907482915 0.4742608599074829 0.25 
0.4742608599074829 0.025738859907482942 0.75 
0.7479275808835355 0.7479275808835355 0.0 
0.2479278610685697 0.2479278610685697 0.5 
0.25207185874639615 0.25207185874639615 0.0 
0.7520715785613619 0.7520715785613619 0.5 
0.16355085990748292 0.3364488599074829 0.75 
0.3364488599074829 0.16355085990748292 0.25 
0.8364485797224488 0.6635505797224488 0.25 
0.6635505797224488 0.8364485797224488 0.75 
0.01948078268764691 0.756121782687647 0.9869789999999999 
0.6850696564881047 0.5409476564881048 0.806984 
0.9590515029567926 0.8149295029567926 0.693016 
0.5409476564881048 0.6850696564881047 0.193016 
0.18506993667313895 0.040947936673138945 0.693016 
0.31492978314182685 0.45905178314182693 0.193016 
0.040947936673138945 0.18506993667313895 0.306984 
0.4590517831418269 0.3149297831418269 0.806984 
0.7561217826876468 0.01948078268764696 0.013020999999999998 
0.7438776569422847 0.48051865694228457 0.513021 
0.8149295029567928 0.9590515029567926 0.306984 
0.48051865694228457 0.7438776569422847 0.486979 
0.24387765694228464 0.9805186569422847 0.9869789999999999 
0.2561217826876469 0.5194807826876469 0.486979 
0.4231916568355342 0.8015856568355342 0.958116 
0.5194807826876469 0.25612178268764696 0.513021 
0.5768077827943974 0.19841378279439734 0.041884 
0.9231916568355343 0.30158565683553423 0.541884 
0.19841378279439742 0.5768077827943974 0.958116 
0.30158565683553423 0.9231916568355343 0.458116 
0.6984137827943974 0.07680778279439747 0.541884 
0.8015856568355343 0.4231916568355342 0.041884 
0.07680778279439741 0.6984137827943975 0.458116 
0.9805186569422846 0.2438776569422847 0.013020999999999998 
0.35563564546842746 0.9097116454684274 0.005195 
0.44704071981496585 0.5529587198149658 0.190343 
0.9470407198149658 0.0529587198149658 0.309657 
0.5529587198149658 0.44704071981496585 0.809657 
0.3241197198149658 0.6758797198149659 0.929413 
0.8241197198149658 0.1758797198149659 0.570587 
0.6758797198149659 0.32411971981496585 0.070587 
0.17587971981496583 0.8241197198149658 0.42941299999999993 
0.11619371981496586 0.8838057198149658 0.015489 
0.3838057198149658 0.6161937198149658 0.515489 
0.8838057198149658 0.11619371981496582 0.984511 
0.6161937198149658 0.3838057198149658 0.48451099999999997 
0.0014818136338038143 0.6636718136338038 0.326482 
0.4985176259961278 0.8363276259961278 0.826482 
0.6636718136338038 0.0014818136338038143 0.673518 
0.8363276259961278 0.4985176259961278 0.173518 
0.9985176259961277 0.3363276259961278 0.673518 
0.5014818136338037 0.16367181363380373 0.173518 
0.3363276259961278 0.9985176259961278 0.326482 
0.16367181363380384 0.5014818136338038 0.826482 
0.0022389210379734578 0.27958192103797347 0.412837 
0.49776079877699236 0.22041779877699236 0.912837 
0.27958192103797347 0.0022389210379734578 0.587163 
0.2204177987769923 0.4977607987769923 0.087163 
0.02472892274654181 0.2509939227465418 0.166651 
0.5022386408529392 0.7795816408529394 0.087163 
0.7204175185919581 0.9977605185919582 0.412837 
0.7795816408529394 0.5022386408529392 0.912837 
0.6734646253814018 0.6635746253814019 0.162889 
0.8265345340634956 0.8364245340634956 0.662889 
0.6635746253814019 0.6734646253814018 0.837111 
0.8364245340634956 0.8265345340634956 0.337111 
0.32653481424852976 0.3364248142485297 0.837111 
0.1734649055664361 0.16357490556643609 0.337111 
0.3364248142485297 0.32653481424852976 0.162889 
0.16357490556643609 0.1734649055664361 0.662889 
0.09028779416150429 0.6443637941615042 0.005195 
0.4097116454684275 0.8556356454684274 0.505195 
0.6443637941615044 0.09028779416150423 0.9948049999999999 
0.8556356454684274 0.4097116454684275 0.49480499999999994 
0.9097116454684274 0.35563564546842746 0.9948049999999999 
0.5902877941615043 0.14436379416150424 0.49480499999999994 
0.0529587198149658 0.9470407198149658 0.690343 
0.14436379416150427 0.5902877941615043 0.505195 
0.24916881582064798 0.408179815820648 0.584759 
0.2508309039943179 0.09181990399431784 0.084759 
0.40817981582064794 0.24916881582064795 0.415241 
0.09181990399431786 0.2508309039943179 0.915241 
0.7508306238092837 0.5918196238092837 0.415241 
0.7491685356356138 0.9081795356356138 0.915241 
0.5918196238092837 0.7508306238092837 0.584759 
0.9081795356356138 0.7491685356356138 0.084759 
0.7509936425615077 0.5247286425615075 0.666651 
0.7490055168833897 0.9752705168833898 0.166651 
0.5247286425615076 0.7509936425615076 0.333349 
0.9752705168833898 0.7490055168833897 0.8333490000000001 
0.249005797068424 0.475270797068424 0.333349 
0.2509939227465418 0.02472892274654181 0.8333490000000001 
0.47527079706842396 0.24900579706842402 0.666651 
0.9977605185919582 0.7204175185919581 0.587163 
