System
1.0
2.82177 4.953314 0.0
-2.82177 4.953314 0.0
0.0 3.719928 12.458782
K Cd P O
4 2 4 14
direct
0.94048230614825 0.3576813061482498 0.831585133493809 
0.05951823922868113 0.6423192392286812 0.16841502703555242 
0.6423191081467386 0.05951810814673854 0.6684151073002331 
0.3576814372301924 0.9404824372301925 0.33158505322912835 
0.500000201885204 2.018852040222133e-07 0.0 
7.080326145961521e-08 0.5000000708032615 0.5000000802646807 
0.6893222843862222 0.25508028438622216 0.3697510593558919 
0.2550801533042795 0.6893221533042797 0.8697511396205727 
0.7449203920726514 0.31067839207265135 0.1302490209087888 
0.3106782609907088 0.7449202609907087 0.6302491011734694 
0.15738520714749415 0.842615207147494 0.750000120397021 
0.5560052733931018 0.1995882733931018 0.1208900194063945 
0.8426153382294368 0.1573853382294367 0.25000004013234034 
0.44399527198382904 0.800412271983829 0.8791101411229668 
0.5881124534179307 0.6223354534179307 0.13474302163020774 
0.016376076608940915 0.20901307660894092 0.05491400881530935 
0.8004124030657718 0.44399540306577173 0.3791100608582862 
0.20901294552699834 0.01637594552699832 0.5549140890799901 
0.1995881423111592 0.5560051423111593 0.6208900996710753 
0.3776652230409427 0.4118882230409427 0.365257058634473 
0.7909875998499327 0.9836245998499327 0.44508607144937135 
0.41188809195900017 0.37766509195900017 0.8652571388991537 
0.9836244687679901 0.79098746876799 0.9450861517140521 
0.6223353223359882 0.5881123223359882 0.6347431018948884 
