System
1.0
8.85944795 0.00458806 1.22142043
1.31210289 9.59215029 0.18506187
0.00763698 0.00786911 9.6832467
Ba Ga Ge O
4 8 8 32
direct
0.7909280158476941 0.9336086918294768 0.933073182307032 
0.7090716742864624 0.5669265612734684 0.5663910597432009 
0.20907177734379137 0.06639204352882976 0.066926745565998 
0.2909281189050283 0.4330731740849006 0.4336078681299748 
0.6150492521088992 0.5661942939215098 0.20206807119518563 
0.8849503522042392 0.2979317437079054 0.9338054124110353 
0.38495054108226473 0.4338054414367667 0.7979318566776924 
0.11504944098692449 0.7020679916503711 0.06619451546184275 
0.4731586696672502 0.9487855977071483 0.7039627094242588 
0.026841380413122246 0.7960372274941427 0.5512142288088593 
0.5268411235239135 0.05121413765112827 0.2960372184486194 
0.9731584127780415 0.2039625078641338 0.4487856990640188 
0.10290624954509843 0.07206654553975492 0.7123565364027692 
0.3970945534102051 0.7876431737618989 0.4279333915284504 
0.8970935436460653 0.9279331898185216 0.28764339147010887 
0.6029052397809588 0.21235656159637767 0.5720665363444276 
0.9816939752351453 0.4422922351823557 0.2116745265221886 
0.5183058694280129 0.28832644849747474 0.05770662482697766 
0.018305817956018433 0.5577075001759207 0.7883254013506894 
0.48169392376315096 0.7116732868608019 0.9422933030459004 
0.9969934260572578 0.13079564174934832 0.8720577336548447 
0.503006109903284 0.6279419829870726 0.36920410255150304 
0.003006367133905852 0.8692040936089283 0.1279421942180334 
0.49699368328787985 0.3720577523712039 0.6307958253213749 
0.5467267662005388 0.8555658362887428 0.8527948963577195 
0.9532729253834294 0.6472047870876728 0.6444339766979016 
0.453273026990625 0.14443389906953372 0.14720503151515849 
0.04672686780773434 0.3527949482706038 0.3555659511749764 
0.2789075593456583 0.022658563145721778 0.7699893947008835 
0.2210911741854134 0.7300093330611598 0.4773412950869697 
0.7210922338455054 0.9773411722125549 0.23001053317199466 
0.7789086190057504 0.2699904022971169 0.5226586327859084 
0.7981574005748748 0.5250259396158844 0.2675087389441168 
0.7018421345936977 0.2324900949711821 0.9749736867131018 
0.20184239261628895 0.4749737957423921 0.7324911889287612 
0.2981576585974661 0.7675096403870942 0.025026241159776134 
0.11220804027336202 0.18777888994940928 0.5735386460120182 
0.38779192776488014 0.9264611404911437 0.31222111639759964 
0.8877917529178017 0.8122208454088672 0.4264612818608598 
0.6122078654262838 0.0735385948671326 0.6877788114752784 
0.6201277371940153 0.6847560700021948 0.05533025328473748 
0.8798720391866299 0.44466964008341864 0.8152437096436222 
0.3798720559968268 0.3152426653560517 0.9446696745879885 
0.1201277540042069 0.5553300952747656 0.18475721822895802 
0.0023184486162008437 0.9358296448569449 0.6787636502636853 
0.4976816094047043 0.8212351618421889 0.564169313476026 
0.9976813445749628 0.06417009050133173 0.3212362776091926 
0.5023181837864595 0.1787645735160876 0.4358306143968521 
0.5072202249441783 0.42154695354939237 0.17872711821746934 
0.9927796276326067 0.32127273162317505 0.07845203861956121 
0.4927795682469856 0.5784527818088842 0.8212728096554087 
0.007220165558556854 0.6787270037351015 0.9215478892533168 
