System
1.0
3.716261 0.0 0.0
0.0 3.716261 0.0
0.0 0.0 3.724575
Al O Zr
1 3 1
direct
0.5000001345438694 0.5000001345438694 0.5749992281008864 
0.5000001345438694 0.5000001345438694 0.09559987166338219 
0.5000001345438694 0.0 0.6359991462124588 
0.0 0.5000001345438694 0.6359991462124588 
0.0 0.0 0.9579987139489553 
