System
1.0
5.403431 0.0 0.0
0.0 5.864764 0.0
0.0 0.0 7.78328
Bi O Rh
4 12 4
direct
0.9820001817364156 0.06680004556026162 0.24999999999999997 
0.5180000958650339 0.5670003867165919 0.24999999999999997 
0.48200008920259907 0.43300029532325274 0.7499999999999999 
0.01820000336823092 0.9330006363431752 0.7499999999999999 
0.6720001243654494 0.31400021416051127 0.0447 
0.8280001532360001 0.8140005551804335 0.0447 
0.12100002239318358 0.4560003110101692 0.24999999999999997 
0.3790000701406329 0.9560006520300915 0.24999999999999997 
0.6720001243654494 0.31400021416051127 0.45499999999999996 
0.8280001532360001 0.8140005551804335 0.45499999999999996 
0.17200003183163284 0.18600012685941109 0.545 
0.3280000607021836 0.6860004678793334 0.545 
0.621000114927 0.04440003028256911 0.7499999999999999 
0.8790001626744494 0.5440003710296756 0.7499999999999999 
0.17200003183163284 0.18600012685941109 0.9549999999999998 
0.3280000607021836 0.6860004678793334 0.9549999999999998 
0.5000000925338165 0.0 0.0 
0.0 0.5000003410199223 0.0 
0.5000000925338165 0.0 0.49999999999999994 
0.0 0.5000003410199223 0.49999999999999994 
