System
1.0
3.00386634 -5.21878117 -0.0
3.00386634 5.21878117 0.0
-0.0 0.0 4.97147784
Cs Cu O
2 2 2
direct
0.8159713916237369 0.18402738994803558 0.7499996741413021 
0.18402738994803555 0.815971391623737 0.24999989138043405 
0.4999993907858862 0.4999993907858863 0.0 
0.4999993907858862 0.4999993907858863 0.4999997827608681 
0.37268949224424464 0.6273092893275278 0.7499996741413021 
0.6273092893275277 0.3726894922442448 0.24999989138043405 
