System
1.0
7.368952 0.000111 -3.021709
-1.238915 7.264059 -3.021702
0.013811 0.016376 10.530157
K Li Mn O
11 1 4 16
direct
0.29147630247020573 0.2914766794339004 0.5829588010445865 
0.5000001470303005 6.8583216445416e-08 1.0935454297296643e-07 
0.24999958716389512 0.750000656261504 0.5000008086979116 
0.9276948916477904 0.9276948652993411 0.2443500594986271 
0.0723055024934858 0.6833465005349939 0.755642662667821 
0.7085236911522768 0.7085227704636942 0.41704194636576186 
3.277352467940884e-07 0.5000009312089047 9.793402777859271e-07 
0.6833462816574231 0.07230466841696524 0.7556428215553795 
0.31665431144874073 0.31665686554897265 0.24435595110322206 
0.7500004064592869 0.24999979363540328 0.5000009387119655 
0.5000014747657973 0.500000999792808 8.869546943605449e-08 
4.40930369581625e-14 -5.496873352635338e-13 9.99999570020413e-07 
0.8669815149490298 0.3800509308426026 0.24703206769476668 
0.13302415951022858 0.13302258604804118 0.7529676998363767 
0.6199476218595638 0.6199475858437945 0.7529717862101294 
0.38005669092716093 0.8669747970619855 0.24703094108130483 
0.4110961493795432 0.014817820232566399 0.4259099061655669 
0.7974037962424689 0.7974025124195695 0.8864127603122882 
0.645225419212999 0.33480291746712726 0.22735402952543257 
0.3348045314011734 0.6452228321793994 0.22735494880702012 
0.01481729259678459 0.41109471135682607 0.4259088031226071 
0.5821367662482856 0.8925518320773218 0.227354992681512 
0.3547762088214405 0.10744560916767885 0.7726447409316488 
0.20259666171165408 0.9109928400168749 0.11358695782862864 
0.5889025844933525 0.5889016841854169 0.5740908576182586 
0.08900512359674397 0.08900351271490455 0.8864096346504845 
0.6651975035741314 0.4178646090387711 0.7726457959970641 
0.9851839607746734 0.9851836840199675 0.5740929279138753 
0.8925526540620504 0.5821369173620269 0.22735707339733438 
0.9109934056909175 0.20259603464755147 0.1135861420318217 
0.10744529820830927 0.35477554121430455 0.7726446766188069 
0.4178635929614288 0.6651965410847102 0.7726457316834834 
