System
1.0
7.33965239 0.02385824 0.76119257
0.77065187 7.47412222 0.14524156
-0.0289883 0.03189648 11.72378853
Nd Mo O
4 8 30
direct
0.7530670943115231 0.5887125995705922 0.7761329208047172 
0.24693376176673576 0.41128698753078174 0.223867255617002 
0.31851356377147044 0.9106882080680175 0.775993881175724 
0.6814872923067883 0.08931137903335622 0.22400629524599527 
0.5606224264866406 0.746613865775941 0.47099976261247267 
0.43937842959161827 0.25338572132543274 0.5290004138092466 
0.2724814763729893 0.4296387819909518 0.8708528736863034 
0.7275193797052695 0.5703608051104221 0.1291473027354159 
0.7690902812618335 0.074002668647129 0.8713184017748714 
0.23091057481642518 0.9259969184542448 0.12868177464684785 
0.9080583143796329 0.32716297944393585 0.47047194377276447 
0.09194254169862584 0.6728366076574379 0.5295282326489548 
0.9174865570462857 0.5244077165324401 0.5957123010508449 
0.08251429903197323 0.4755918705689336 0.40428787537087424 
0.32907239885377826 0.7094922431416212 0.44263979609861565 
0.6709284572244804 0.29050734395975253 0.5573603803231035 
0.42362399174137694 0.593933879170557 0.8189353298358597 
0.5763768643368816 0.40606570793081687 0.18106484658585947 
0.6465812085894751 0.9063473712039698 0.8135094709066183 
0.3534196474887839 0.093652215897404 0.18649070551510105 
0.7033002293413215 0.5692138588251349 0.4086006892773219 
0.2967006267369374 0.43078572827623884 0.5913994871443974 
0.1307147236437523 0.7734370781246198 0.6570270543664615 
0.8692861324345066 0.22656250897675403 0.3429731220552577 
0.2987819826740362 0.9013125326599588 0.9825011477164926 
0.7012188734042225 0.09868705444141503 0.01749902870522665 
0.0397343124518337 0.16896496755409357 0.536839133368329 
0.960266543626425 0.8310346195472802 0.46316104305339023 
0.5788911817536635 0.7336334074546451 0.6198403142586923 
0.4211096743245953 0.2663661796467288 0.3801598621630269 
0.0023023130541173823 0.9989260146486352 0.8494271981585807 
0.9976985430241414 0.0010735724527387118 0.15057297826313848 
0.7220823617249295 0.592249811376978 0.9811071067964171 
0.2779184943533293 0.4077497757243957 0.018893069625302218 
0.7281770552079422 0.2841505720881993 0.804349016979106 
0.2718238008703167 0.7158490150131745 0.19565115944261316 
0.33813758535041943 0.21675171091736842 0.8125150603625516 
0.6618632707278393 0.7832478761840055 0.18748511605916762 
0.05123797840386502 0.511087612888101 0.8405760331080386 
0.9487628776743937 0.4889119742132728 0.15942414331368057 
0.617583783257701 0.9478937826395114 0.40554485610016433 
0.38241707282055787 0.05210580446186241 0.5944553203215549 
