System
1.0
5.556083 0.0 0.002646
0.0 5.690654 0.0
0.003786 0.0 7.894495
La O Rh Zn
4 12 2 2
direct
0.5120000967558838 0.5530003887077928 0.24999958220832186 
0.9880003539361983 0.053400037535255206 0.24999934094142368 
0.011599466642291188 0.9470006656533086 0.7499995192872757 
0.4879997240387236 0.4470003141996082 0.7499992778176322 
0.7060003466243052 0.29900021016931283 0.048399611511995136 
0.8040003992853936 0.7910005559997542 0.048799561586154123 
0.09169987182848893 0.47700033528683017 0.24699979714227052 
0.4080000384067263 0.9770006867405306 0.2529996330227655 
0.6960000515505885 0.29100020454605363 0.4509993616902136 
0.7940001037799768 0.7990005616230133 0.4519993113845061 
0.20599971701463066 0.2010001412843876 0.5479995486414481 
0.3039997692440187 0.7090004983613472 0.5489994983357406 
0.5919997823878811 0.02340001644803318 0.7469992270031885 
0.9079999488040302 0.5230003676205707 0.7529990630357426 
0.19599942165311401 0.20900014690764676 0.9509992985664221 
0.2939994738825021 0.701000492738088 0.9519992482607146 
0.0 0.5000003514537005 0.0 
0.49999991039730374 0.0 0.4999994300129771 
0.5000002701472072 0.0 -4.3177593248679547e-10 
-1.4397506690115737e-06 0.5000003514537005 0.4999996834451403 
