System
1.0
5.11654812 -0.00085834 0.0
-0.59622706 5.27677711 0.0
0.0 0.0 5.46152832
Y Ta O
2 2 8
direct
3.83095773333348e-07 0.7499995893005702 0.23377325808989527 
1.2769859111390701e-07 0.2499998631001901 0.7662264343039945 
0.5000002177043809 0.7499997465665096 0.6948523862590945 
0.4999999623071986 0.2500000203661294 0.30514730613479524 
0.25101416274983174 0.5986377611381671 0.9166833980224989 
0.7489862726589301 0.9013617319948521 0.9166833980224989 
0.7489860172617477 0.40136200579447195 0.08331629437139089 
0.25101390735264945 0.09863803493778685 0.08331629437139089 
0.2679381630956913 0.49281059441223407 0.436892555609139 
0.732061761518706 0.007189446320024768 0.436892555609139 
0.7320620169158881 0.507189172520405 0.5631071367847508 
0.26793841849287353 0.9928103206126142 0.5631071367847508 
