System
1.0
3.070284892 0.0 0.0
-1.535142446 2.658944714 0.0
0.0 0.0 13.382349603
Nb O Rb
2 4 2
direct
0.6670010926523561 0.333000590371351 0.24999999258351485 
0.3330005904611244 0.6670011825155889 0.7499999777505445 
0.3330005904611244 0.6670011825155889 0.15399999543144516 
0.3330005904611244 0.6670011825155889 0.34599998973558455 
0.6670010926523561 0.333000590371351 0.6539999805984749 
0.6670010926523561 0.333000590371351 0.8459999749026142 
0.0 0.0 0.0 
0.0 0.0 0.4999999851670297 
