System
1.0
9.221949 0.0 0.0
-4.610975 7.986442 0.0
0.0 0.0 12.820549
Na Nb P O
4 4 12 42
direct
0.0 0.0 0.499999961000113 
0.0 0.0 0.0 
0.0 0.0 0.7499999415001696 
0.0 0.0 0.2499999805000565 
0.666667150174134 0.3333330834747397 0.5255919590039427 
0.33333340878597967 0.6666671669497298 0.025591998003829785 
0.33333340878597967 0.6666671669497298 0.47440796299628324 
0.666667150174134 0.3333330834747397 0.9744079239963963 
0.3391236158781201 0.9779062448915913 0.6346689504959615 
0.022094238680021763 0.36121809045782605 0.6346689504959615 
0.6387823717997972 0.6608771654997722 0.6346689504959615 
0.6608769430819937 0.022094005532878228 0.13466898949584843 
0.9779063202800921 0.6387821599666434 0.13466898949584843 
0.3612181871603165 0.33912308492469734 0.13466898949584843 
0.6608769430819937 0.022094005532878228 0.36533097150426463 
0.9779063202800921 0.6387821599666434 0.36533097150426463 
0.3612181871603165 0.33912308492469734 0.36533097150426463 
0.3391236158781201 0.9779062448915913 0.8653309325043775 
0.022094238680021763 0.36121809045782605 0.8653309325043775 
0.6387823717997972 0.6608771654997722 0.8653309325043775 
0.3805215845743692 0.937728234830037 0.7499999415001696 
0.06227228876682427 0.4427941108864526 0.7499999415001696 
0.5572063530167456 0.6194791551327 0.7499999415001696 
0.6194789743857445 0.062272015594432566 0.2499999805000565 
0.9377282701932896 0.557206139538017 0.2499999805000565 
0.44279420594336816 0.3805210952917696 0.2499999805000565 
0.48434205447586526 0.16031904014780052 0.6126499522134385 
0.8396811251995596 0.32402308114328787 0.6126499522134385 
0.6759772708477533 0.515658129133381 0.6126499522134385 
0.5156585044842484 0.839681210276669 0.11264999121332546 
0.16031943376055416 0.6759771692811816 0.11264999121332546 
0.32402328811236053 0.4843421212910884 0.11264999121332546 
0.5156585044842484 0.839681210276669 0.3873499697867876 
0.16031943376055416 0.6759771692811816 0.3873499697867876 
0.32402328811236053 0.4843421212910884 0.3873499697867876 
0.48434205447586526 0.16031904014780052 0.8873499307869006 
0.8396811251995596 0.32402308114328787 0.8873499307869006 
0.6759772708477533 0.515658129133381 0.8873499307869006 
0.36852053196672424 0.8569532146020004 0.5660279558499439 
0.14304732590672808 0.5115671281088946 0.5660279558499439 
0.488433368483711 0.631480158138044 0.5660279558499439 
0.6314800269933897 0.1430470358224691 0.06602799484983092 
0.8569532330533857 0.4884331223155749 0.06602799484983092 
0.5115671904764028 0.3685200922864255 0.06602799484983092 
0.6314800269933897 0.1430470358224691 0.4339719661502821 
0.8569532330533857 0.4884331223155749 0.4339719661502821 
0.5115671904764028 0.3685200922864255 0.4339719661502821 
0.36852053196672424 0.8569532146020004 0.9339719271503952 
0.14304732590672808 0.5115671281088946 0.9339719271503952 
0.488433368483711 0.631480158138044 0.9339719271503952 
0.16982962068034127 0.9575952398052198 0.6263919511415654 
0.04240513704540974 0.21223305314833643 0.6263919511415654 
0.7877674686306364 0.8301712078951322 0.6263919511415654 
0.8301709382797725 0.042405010619249624 0.12639199014145258 
0.9575954219147039 0.787767197276133 0.12639199014145258 
0.21223309032947735 0.16982904252933725 0.12639199014145258 
0.8301709382797725 0.042405010619249624 0.37360797085866043 
0.9575954219147039 0.787767197276133 0.37360797085866043 
0.21223309032947735 0.16982904252933725 0.37360797085866043 
0.16982962068034127 0.9575952398052198 0.8736079318587736 
0.04240513704540974 0.21223305314833643 0.8736079318587736 
0.7877674686306364 0.8301712078951322 0.8736079318587736 
