System
1.0
5.37103 0.0 0.0
0.0 10.210992 0.0
0.0 1.272293 10.71039
K Fe H Se O
2 4 2 8 24
direct
0.42985600000000007 0.5000000979336968 0.0 
0.50491 1.469005453868418e-07 0.5 
0.9975050000000001 0.74618136370254 0.740467 
0.9975050000000001 0.2538191259659445 0.259533 
0.486082 0.2556422726591642 0.7576120000000001 
0.486082 0.7443582170093201 0.24238800000000002 
0.812018 0.014950218849102756 0.7349220000000001 
0.812018 0.9850502708193817 0.265078 
0.9815680000000001 0.22802031982491408 0.936563 
0.9815680000000001 0.7719801698435703 0.063437 
0.992544 0.26294722083118277 0.5763370000000001 
0.992544 0.7370532688373016 0.423663 
0.508726 0.5949113059783624 0.64484 
0.508726 0.4050891836901221 0.35516 
0.466805 0.9078084268581204 0.8476760000000001 
0.466805 0.0921920628103641 0.15232400000000001 
0.700442 0.3057083248474437 0.9018660000000001 
0.700442 0.6942921648210407 0.098134 
0.066087 0.7110484112016562 0.92556 
0.066087 0.28895207846682835 0.07444 
0.184139 0.32213530909422095 0.837296 
0.184139 0.6778651805742635 0.16270400000000002 
0.278356 0.1926852182738402 0.614474 
0.278356 0.8073152713946442 0.38552600000000004 
0.91876 0.8084243220857134 0.5573220000000001 
0.91876 0.19157616758277107 0.442678 
0.792629 0.16759523319873978 0.682 
0.792629 0.8324052564697445 0.31800000000000006 
0.554538 0.4269492753599797 0.6526000000000001 
0.554538 0.5730512143085048 0.34740000000000004 
0.679584 0.6416283518861539 0.76995 
0.679584 0.35837213778233057 0.23005 
0.20676200000000003 0.5988003232367282 0.7009890000000001 
0.20676200000000003 0.40120016643175627 0.299011 
0.43095400000000006 0.07080526760852764 0.8636460000000001 
0.43095400000000006 0.9291952220599567 0.136354 
0.287286 0.882199384992738 0.722253 
0.287286 0.11780110467574642 0.2777470000000001 
0.779301 0.9193064071706071 0.773001 
0.779301 0.08069408249787727 0.22699900000000003 
