System
1.0
6.00426811 -0.0 0.0
-0.0 6.17442523 0.0
0.0 0.0 8.60143538
Sr Ce O
4 4 12
direct
0.9872837092267006 0.4519222108713174 0.24999986572015848 
0.48728386661469286 0.04807740285820896 0.7499995971604755 
0.5127158186093226 0.9519218246008437 0.24999986572015848 
0.012715975997314877 0.5480770165877353 0.7499995971604755 
0.49999984261200775 0.4999996137295264 0.49999973144031695 
0.49999984261200775 0.4999996137295264 0.0 
0.0 0.0 0.0 
0.0 0.0 0.49999973144031695 
0.3922387265326298 0.5457393883936503 0.24999986572015848 
0.2998526656135522 0.7992842525197094 0.5575930205058294 
0.79985250822556 0.7007145886688697 0.4424064423748045 
0.7001470196104632 0.20071497493934334 0.4424064423748045 
0.2001471769984555 0.299284638790183 0.9424061738151214 
0.2001471769984555 0.299284638790183 0.5575930205058294 
0.79985250822556 0.7007145886688697 0.057593289065512476 
0.8922385691446375 0.9542594527949289 0.7499995971604755 
0.10776111607937791 0.04573977466412386 0.24999986572015848 
0.7001470196104632 0.20071497493934334 0.057593289065512476 
0.6077609586913856 0.4542598390654025 0.7499995971604755 
0.2998526656135522 0.7992842525197094 0.9424061738151214 
