System
1.0
2.761844 7.735454 0.0
-2.761844 7.735454 0.0
0.0 4.302914 16.657811
Zn Bi P O
2 12 4 30
direct
0.003291899025124871 0.6225937959648462 0.7677070460869105 
0.3774069629882938 0.9967088599280152 0.23229301394499033 
0.47140150773274286 0.1069749799309875 0.38987602340499733 
0.13024001106260122 0.730483880400434 0.9228390553997793 
0.22852898554356416 0.8224728457570452 0.5950470357218025 
0.720924782512852 0.22670406672917143 0.742648044582571 
0.3616971081941545 0.9243929231508501 0.7572950454618584 
0.07560783580229004 0.6383036507589854 0.2427050145700425 
0.8930257790221525 0.5285992512203973 0.6101240366269034 
0.1775279131960949 0.7714717734095758 0.40495302431009833 
0.7920718124774353 0.40057324546703654 0.9121820547600193 
0.7732966922239686 0.27907597644028814 0.2573520154493298 
0.5994275134861036 0.20792894647570467 0.08781800527188147 
0.26951687855270606 0.8697607478905388 0.07716100463212149 
0.46761762787377903 0.10451610199103416 0.8972690538647635 
0.8954846569621057 0.532383131079361 0.1027310061671372 
0.7685096182335972 0.5129032480369169 0.421025025274931 
0.4870975109162232 0.23149114071954283 0.5789750347569698 
0.46651338340566034 0.5973885729532085 0.8397980504146703 
0.18358280851384526 0.9502069188214664 0.29160901750584256 
0.32197736112755837 0.24274324637217787 0.6522200391540064 
0.610584401859608 0.6820305053355517 0.493656029635108 
0.3179702536175884 0.389416357093532 0.5063440303967929 
0.9489939088308949 0.051006608268950565 0.0 
0.9656631117797871 0.08553883708900142 0.8378900503001294 
0.0666559781974902 0.26951427199872413 0.15787000947723617 
0.3201601691009733 0.4875584115451409 0.33693002022654833 
0.049351036610904606 0.2536323324730835 0.4391330263619887 
0.7463684264800566 0.9506497223422354 0.5608670336699121 
0.02062510154645942 0.16866731595714218 0.6607740396675192 
0.3969983647992069 0.19034106549584398 0.26169201570986816 
0.6350265040826456 0.4643692569184362 0.3979770238913158 
0.8096596934572959 0.6030023941539331 0.7383080443220327 
0.5356315020347038 0.3649742548704945 0.6020230361405849 
0.8313334429959979 0.9793756574066808 0.33922602036438165 
0.40261218599993176 0.5334873755474797 0.16020200961723058 
0.049793840131673754 0.8164179504392947 0.7083910425260582 
0.9144619218641387 0.034337647173352824 0.16211000973177145 
0.8556366148397182 0.49966809928776723 0.027496001650637144 
0.45672419587286694 0.5432763212269787 0.0 
0.38629314395038095 0.9798740036381253 0.9120080547495738 
0.623912306761626 0.7370114705640186 0.15214300913343348 
0.020126755315014663 0.613707615002759 0.08799200528232701 
0.5003326596653728 0.1443641441134218 0.9725040583812637 
0.7572575125809621 0.6780233978255817 0.34778002087789445 
0.2629892883891214 0.376088452191514 0.8478570508984673 
0.7304874869553984 0.9333447807551841 0.8421300505546646 
0.5124423474079992 0.6798405898521669 0.6630700398053525 
