System
1.0
6.868023 0.0 0.0
-1.880792 7.013714 0.0
-2.58258 -0.829884 6.979532
Li Fe Mo O
2 2 4 16
direct
0.773166267213407 0.4490171206547829 0.25246707234498594 
0.22683399542610141 0.5509829132508076 0.7475332142072604 
0.4035941501804077 0.1008748863415741 0.3191400914502838 
0.5964061124591007 0.8991251475640163 0.6808601951019624 
0.8217382200665925 0.9660484353866607 0.2154370617339563 
0.333232056383417 0.5772661753410878 0.28687308220410257 
0.17826204257291578 0.03395159851892972 0.78456322481829 
0.6667682062560913 0.42273385856450263 0.7131272043481437 
0.5752622057940274 0.1597827634603529 0.6108541750415859 
0.2415580985056505 0.04075700261455111 0.03845901102051284 
0.7190042055568043 0.7284182762761406 0.2594100743345182 
0.8885922340663833 0.9506791898412122 0.6568571882238489 
0.42473805684548094 0.8402172704452376 0.3891461115106604 
0.6892972725331754 0.13178992768136458 0.27494107878496116 
0.5186791180491318 0.6134319978636635 0.656189188032432 
0.9057053001514292 0.5130969337717001 0.6689961917023065 
0.25311803121761983 0.5761543073434731 0.03960401134861516 
0.48132114459037656 0.386568036041927 0.34381109851981434 
0.7584421641338579 0.9592430312910393 0.9615412755317335 
0.09429496248807913 0.48690310013389043 0.33100409484993976 
0.11140802857312511 0.04932084406437826 0.3431430983283974 
0.2809960570827041 0.2715817576294498 0.740590212217728 
0.7468822314218885 0.42384572656211755 0.9603962752036311 
0.31070299010633307 0.8682101062242259 0.7250592077672852 
