System
1.0
5.970575 0.0 0.0
-2.985287 5.17067 0.0
-2.985288 -1.723556 4.874955
Co Hg O
4 2 8
direct
0.2500001189323007 0.6250001618913735 0.37499961538145954 
0.7499994489806376 0.12500016189137353 0.37499961538145954 
0.7499997002125113 0.6250001618913735 0.37499961538145954 
0.25000013793543846 0.6250003777465383 0.874999102556739 
0.0 0.0 0.0 
0.49999973540085413 0.25000032378274706 0.7499992307629191 
0.7039998441665778 0.8520000638931287 0.1479998482038827 
0.296000185841926 0.8520000638931287 0.1479998482038827 
0.2959999808367172 0.44400006389312874 0.1479998482038827 
0.7959995407518842 0.39800008375180385 0.1939998010240084 
0.7039998596731383 0.8520002400309431 0.5559994297389108 
0.20400025702788413 0.8060002598896183 0.6019993825590364 
0.7959995562584448 0.3980002598896183 0.6019993825590364 
0.20400005202267524 0.3980002598896183 0.6019993825590364 
