System
1.0
6.44970135 -0.02878104 0.0
-3.19707785 7.20859596 0.0
0.0 0.0 18.07146788
Na Zn B O
12 4 20 40
direct
0.2235814104248694 0.8904549790161453 0.5807118418755337 
0.7129489474452899 0.34155830618657557 0.5691182432356019 
0.28705124627626305 0.6584399898735954 0.430881639452414 
0.8741844851401399 0.07980280965426848 0.7411570430533866 
0.21294890623572052 0.8415590979367004 0.930881580796422 
0.7870512874859438 0.1584411981223501 0.06911830189159393 
0.6258157497910939 0.42019669465465714 0.24115710170937857 
0.7764187832967393 0.10954431704346529 0.4192880408124822 
0.12581570858146868 0.9201964864053422 0.2588428396346294 
0.37418444393051475 0.5798026014049534 0.7588427809786373 
0.2764187420871141 0.6095441087941502 0.0807119005315257 
0.7235814516344945 0.3904551872654604 0.9192879821564903 
0.15621655833821288 0.30132910873787166 0.5952429601708591 
0.3437835385225914 0.1986705392919337 0.09524301882685118 
0.6562166551990172 0.801328756767677 0.9047568638611647 
0.8437836353833958 0.698670187321739 0.4047569225171568 
0.027411440632788282 0.8418161144583336 0.07675522099569168 
0.9725887530888203 0.15818318160127706 0.9232446616923242 
0.6255611625751731 0.8302368949786013 0.2976460450825478 
0.29141212303538905 0.23000392926521682 0.8339275121702975 
0.5503522559899301 4.60708770464429e-05 0.19532011708660685 
0.37443903114643545 0.16976240108100935 0.7023538376054681 
0.21072199107268838 0.03554666980088849 0.4289623696775674 
0.050352214780305014 0.5000458626277314 0.30467982425740114 
0.7085880706862195 0.7699953667943937 0.16607237051771842 
0.4496478820804993 -4.6214597926092714e-05 0.8046797656014091 
0.7107220879334928 0.5355463178306938 0.07103757166644055 
0.28927810578811597 0.46445297822891685 0.9289623110215752 
0.8744391280072399 0.6697620491108146 0.7976459864265557 
0.47258871187919527 0.658182973351962 0.5767551623396996 
0.9496479789413036 0.4999534334318792 0.6953200584306148 
0.5274114818424134 0.3418163227076486 0.42324472034831623 
0.7892782026489203 0.9644526262587222 0.5710375130104486 
0.2085879738254153 0.2699957187645885 0.3339275708262895 
0.7914122198961934 0.7300035772950222 0.6660723118617263 
0.12556106571436884 0.33023724694879597 0.20235389626146016 
0.5548412514063282 0.6253083999475372 0.6429271445769322 
0.38772042648376964 0.4124088432368496 0.8702024179148158 
0.1102998135655226 0.8685595075633601 0.4607208759519136 
0.4451589423152804 0.37469089611207357 0.35707273811108364 
0.6345036924051194 0.80499480783449 0.3706926165133086 
0.4537033448334377 0.039359922743119995 0.7284771545408897 
0.972239003586814 0.3476900254860542 0.6739151809416638 
0.8897003801560861 0.1314397884962507 0.5392790067361023 
0.20937244266038413 0.9658774788050927 0.04298226495766463 
0.7906277510612245 0.034121817254518 0.9570176177303513 
0.07573539139459652 0.3762322883424552 0.35442316842191 
0.4242647054662078 0.12376735968735017 0.854423109765918 
0.1122796703770347 0.0875908047929557 0.37020247657080785 
0.953703441694242 0.5393595707729253 0.7715226694911342 
0.6122797672378391 0.587590452822761 0.1297974647732001 
0.5773686263131187 0.837279137959674 0.5455412860014619 
0.5462968488881709 0.9606393733164906 0.27152272814712625 
0.5277612313444198 0.15230947882287144 0.17391523959765579 
0.38970033894646094 0.6314395802469357 0.9607208172959215 
0.887720523344574 0.9124084912666549 0.629797406117208 
0.5757354882554008 0.8762319363722605 0.14557677292209792 
0.05484115454552389 0.12530875191773183 0.8570726794550916 
0.02776119013479456 0.6523092705735565 0.3260847017463522 
0.2906277098515994 0.534121609005203 0.5429822063016725 
0.7093724838700092 0.4658776870544077 0.4570176763863434 
0.046296752027422255 0.46064072528612504 0.22847721319688163 
0.9226316642692942 0.6627198061297421 0.045541344657453874 
0.9451590391760848 0.8746905441418787 0.14292720323292424 
0.07736852945231448 0.3372794899298686 0.9544585380305619 
0.42263156740848984 0.16272015809993676 0.4544585966865541 
0.2015966012186773 0.2405006462931192 0.25388642021607677 
0.13450359554431518 0.3049951598046846 0.1293073248306994 
0.4722389623771889 0.8476898172367392 0.8260846430903601 
0.8654965981772936 0.695004136254926 0.8706925578573165 
0.7015966980794817 0.7405002943229245 0.2461135211279311 
0.36549650131648914 0.19500448822512073 0.6293072661747073 
0.924264802327012 0.6237670077171555 0.6455767142661059 
0.7984035925029312 0.7594986497664914 0.7461134624719391 
0.29840349564212704 0.2594990017366861 0.7538863615600847 
0.6102998547751478 0.36855971581267494 0.039279065392094366 
