System
1.0
10.32477 0.0 0.0
-3.441589 9.734288 0.0
-3.441591 -4.867144 8.430141
Li O S Sm
12 48 8 12
direct
0.8749999994614888 0.749999801954609 0.125000014827749 
0.7499999888234743 0.3749998790018307 0.125000014827749 
0.6249999811929536 0.8749997323212542 0.250000029655498 
0.1249999670089343 0.3749998350508831 0.250000029655498 
0.2499999381023846 0.12499984246475 0.3750000444832471 
0.6249999416483895 0.24999981678234276 0.3750000444832471 
0.3749999122033285 0.7499996261508186 0.625000074138745 
0.7499999157493333 0.8749996004684114 0.625000074138745 
0.8749998868427835 0.6249996078822783 0.7500000889664942 
0.3749998726587644 0.12499971061190723 0.7500000889664942 
0.24999986502824353 0.6249995639313307 0.8750001037942431 
0.12499985439022906 0.24999964097855237 0.8750001037942431 
0.3390000091178608 0.40999991069855507 0.014400001708156685 
0.17500001462126025 0.6039998708394589 0.014400001708156685 
0.6749999922638535 0.16099994213272503 0.07050000836285043 
0.8960000135115145 0.9099997882437408 0.07050000836285043 
0.9859999888433337 0.16099993524121645 0.09010001068784149 
0.6040000106299873 0.9289997774485064 0.09010001068784149 
0.5899999940201912 0.42899987529079 0.10400001233668717 
0.014400000998728625 0.6749998247478125 0.10400001233668717 
0.17499997390281907 0.07049992890630181 0.16100001909814074 
0.48599997445883264 0.09009992487930035 0.16100001909814074 
0.5709999882109172 0.6609998026601039 0.1750000207588486 
0.10399998404081567 0.5139998328626149 0.1750000207588486 
0.3389999554520844 0.4289997975855146 0.32500003855214743 
0.4859999686999583 0.8959997016360411 0.32500003855214743 
0.9099999554201392 0.5139997751989717 0.33900004021285535 
0.9289999642425991 0.8249997113011421 0.33900004021285535 
0.5709999425224328 0.4099997765251023 0.3960000469743089 
0.324999958862423 0.9859996581805697 0.3960000469743089 
0.8389999288568084 0.014399852882278581 0.4100000486350167 
0.0704999396820518 0.3959997744790258 0.4100000486350167 
0.8389999343521111 0.324999782386089 0.4290000508888346 
0.09009992808277444 0.10399982779258504 0.4290000508888346 
0.5899999339363416 0.6609996933101463 0.48600005765028814 
0.3959999385886999 0.8249996596148278 0.48600005765028814 
0.603999915263018 0.17499978331833338 0.514000060971704 
0.4099999199153762 0.3389997496230151 0.514000060971704 
0.9099999257689435 0.8959996151405764 0.5710000677331575 
0.16099991949960693 0.6749996605470723 0.5710000677331575 
0.928999914169666 0.6039996684541356 0.5900000699869753 
0.1609999250062568 0.985999589968699 0.5900000699869753 
0.6749998950006422 0.014399784670407903 0.6040000716476832 
0.42899991132928506 0.589999666408059 0.6040000716476832 
0.09009989843157881 0.48599966773418973 0.6610000784091368 
0.0704998896091188 0.17499973163201898 0.6610000784091368 
0.6609998983996337 0.5709996453476467 0.6750000800698447 
0.5139998851517597 0.10399974129712017 0.6750000800698447 
0.8959998698109022 0.48599961007054654 0.8250000978631434 
0.4289998656408005 0.33899964027305746 0.8250000978631434 
0.8249998799347148 0.9289995141295893 0.8390000995238514 
0.5139998793957221 0.9099995180333151 0.8390000995238514 
0.9859998528529893 0.32499961818534884 0.896000106285305 
0.4099998598315267 0.5709995676423714 0.896000106285305 
0.395999843190095 0.07049966555222387 0.9100001079460129 
0.014399864990932525 0.838999507656784 0.9100001079460129 
0.10399984043029843 0.0900996548446784 0.9290001101998306 
0.32499986167512246 0.83899950097624 0.9290001101998306 
0.8249998391606512 0.39599957195305935 0.9860001169612843 
0.6609998446640507 0.5899995320939632 0.9860001169612843 
0.0 0.0 0.0 
0.5 0.0 0.0 
1.4184019258882601e-08 0.49999989727037103 0.0 
0.5000000141840193 0.49999989727037103 0.0 
0.49999992692585893 0.49999972146658067 0.500000059310996 
0.49999991274183975 -1.7580379036649952e-07 0.500000059310996 
-7.307414107222508e-08 0.49999972146658067 0.500000059310996 
-8.725816030914311e-08 -1.7580379036649952e-07 0.500000059310996 
0.3749999852774696 0.24999990468423794 0.125000014827749 
0.25000000300749364 0.8749997762722018 0.125000014827749 
0.8749999599169248 0.12499988641569758 0.250000029655498 
0.3749999741009439 0.6249997836860686 0.250000029655498 
0.7499999522864038 0.624999739735121 0.3750000444832471 
0.12499995583240861 0.7499997140527137 0.3750000444832471 
0.8749998980193093 0.24999972888044755 0.625000074138745 
0.24999990156531404 0.3749997031980403 0.625000074138745 
0.624999879750774 0.3749996592470928 0.7500000889664942 
0.12499989393479333 0.8749995565174639 0.7500000889664942 
0.7499998508442244 0.12499966666095963 0.8750001037942431 
0.6249998685742484 0.7499995382489234 0.8750001037942431 
