System
1.0
6.268854 -0.000131 -0.014503
-1.528036 6.180101 0.035853
-1.974444 -1.38518 7.747961
As Ga K O
4 2 2 14
direct
0.5160003456025757 0.25299993960764555 0.1649999203888899 
0.16700068462146306 0.9630002068783018 0.3080003482865714 
0.8330000015023197 0.03689982229714457 0.6919997818899982 
0.484000340603284 0.7470000895926706 0.8350002098264383 
0.6200007771229408 0.8030000538502997 0.27900010807202796 
0.37999990908291903 0.19699997535001657 0.7210000221433003 
4.1038486232049313e-07 0.5000001243491452 1.9379199991346832e-07 
1.1496778308205842e-07 0.5000001386683292 0.5000002577059992 
0.43500077827291256 0.7280000739721976 0.03000011843544029 
0.22400010885269103 0.10599997467429619 0.13599997218445767 
0.9000009334336067 0.7909999795262505 0.21399998725713237 
0.6940002503012204 0.11999986562727803 0.2789998148476025 
0.5640004862682392 0.4919999908876188 0.2960000112774935 
0.33200059572312723 0.7860001228326358 0.34000022021724885 
0.19999994252182351 0.1600000037390445 0.47400004556457725 
0.8000007436840363 0.8400000254612717 0.526000084650751 
0.6680000904827327 0.21399990636768046 0.6599999099980793 
0.43600019993762057 0.5080000383126975 0.7040001189378347 
0.3060004359046392 0.8800001635730381 0.7210003153677258 
0.09969975263537215 0.20900004974850664 0.7860001430737548 
0.7760005773531689 0.8940000545260199 0.8640001580308706 
0.5649999079329472 0.2719999552281187 0.9700000117798879 
