System
1.0
2.980379 -1.720723 -4.710211
-2.980379 -1.720723 -4.710211
0.0 3.441445 -4.710211
Er Eu O
2 2 6
direct
0.0 0.0 0.0 
0.5000001545817192 0.5000001545817192 0.5000000092937003 
0.2500000772908596 0.2500000772908596 0.2500000046468501 
0.7500002318725789 0.7500002318725789 0.7500000139405504 
0.750000275885478 0.3580004074123302 0.14199958208314092 
0.6420004748721406 0.8580004023981608 0.24999949426302726 
0.14200027627752224 0.7500000722766902 0.3579999168267366 
0.8580000328859162 0.25000023688674833 0.642000101760664 
0.357999834291298 0.14199990676527777 0.7500005243243733 
0.25000003327796055 0.6419999017511083 0.8580004365042596 
