System
1.0
4.77067119 -0.0 -0.0
2.385335595 2.398194605 3.37871768
2.385335595 -2.398194605 3.37871768
O Rb
1 2
direct
0.0 0.0 0.0 
0.2505072530633082 0.24949234868581996 0.24949234868581996 
0.7494918363287734 0.7505069646636141 0.7505069646636141 
