System
1.0
5.814734 0.0 0.0
0.0 5.887663 0.0
-5.773517 0.0 8.249036
Sr Yb Mo O
4 2 2 12
direct
0.24177719217892876 0.4600832344308265 0.750332636159844 
0.24177717494753517 0.03991702033931986 0.2503328786122992 
0.7582235301919813 0.5399172751094661 0.24966687893524578 
0.7582235474233748 0.9600834892009728 0.7496666364827906 
0.5000003611854551 0.5000002547701463 0.4999997575475449 
0.5000003439540615 0.0 0.0 
1.7231393627201818e-08 0.0 0.4999997575475449 
0.0 0.5000002547701463 0.0 
0.7732555506013332 0.19163009764320627 0.5418287372644575 
0.7732555333699396 0.30837015712694 0.04182897971691251 
0.226745171769577 0.8083704118970864 0.45817077783063237 
0.22674518900097068 0.6916303524133526 0.9581705353781773 
0.14063212961191573 0.22954011695987878 0.9537825375059401 
0.14063211238052215 0.2704601378102675 0.45378277995839517 
0.8593685927589944 0.7704603925804139 0.04621697758914977 
0.8593686099903881 0.7295403717300251 0.5462167351366947 
0.31175723957978807 0.02429501237928141 0.7288906465571751 
0.3117572223483945 0.47570524239086487 0.22889088900963023 
0.6882434827911221 0.9757054971610113 0.2711088685379147 
0.6882435000225158 0.5242952671494276 0.7711086260854597 
