System
1.0
4.626089 5.185373 0.0
-4.626089 5.185373 0.0
0.0 1.719231 5.39762
Na Sc Ge O
2 2 4 12
direct
0.301952356192787 0.6980482705705877 0.25 
0.6980483187831549 0.30195240440535426 0.75 
0.8995972270026933 0.10040339976068122 0.25 
0.10040344797324846 0.8995972752152607 0.75 
0.37936317226757155 0.1969532116982786 0.262057 
0.803047415065096 0.6206374544958032 0.237943 
0.6206375027083706 0.8030474632776634 0.737943 
0.1969532599108459 0.3793632204801388 0.762057 
0.354421303227443 0.3646033010264483 0.976208 
0.6353974221620611 0.6455794199610663 0.523792 
0.645579371748499 0.6353973739494938 0.023792 
0.364603252813881 0.35442125501487576 0.476208 
0.09760833176713095 0.6217792184595645 0.694968 
0.3782215047289448 0.9023923914213784 0.8050320000000001 
0.9023923432088111 0.3782214565163774 0.305032 
0.6217791702469972 0.09760828355456362 0.19496800000000003 
0.19021508105037999 0.029015115896221712 0.36355100000000007 
0.9709855108671531 0.8097855457129948 0.13644900000000001 
0.8097855939255619 0.9709855590797202 0.636449 
0.029015164108789 0.19021512926294726 0.863551 
