System
1.0
6.148457 0.00163 -0.011999
-1.898029 6.753852 0.035296
-0.52633 -0.631744 10.65065
Li O Te V
2 24 4 6
direct
0.7899997674222263 0.7780001460173259 0.10799978123914081 
0.20999978373082018 0.2219995316691693 0.8919999376504577 
0.30199989262269156 0.23300002319888186 0.0679999406508102 
0.41799996309255444 0.8410001749115812 0.08139972277586173 
0.7489997239228563 0.46800007235748525 0.09519989400955388 
0.8559995959115074 0.12299996979868172 0.11800003382113246 
0.08830010871759585 0.9020001082202992 0.2159996692957176 
0.1679999947523765 0.5620000066060739 0.23899980467894763 
0.5149997416382907 0.16099989558611189 0.25499998794303347 
0.6209998057432238 0.7150000339512564 0.2669997894466947 
0.8569995296546992 0.057899784090461356 0.40300005890508683 
0.37899993092276263 0.8829999921616002 0.40799970390988044 
0.800999626884581 0.41199986235869257 0.42599992051014285 
0.35599980431219763 0.2749998031436493 0.4589999305770798 
0.6439997468408487 0.724999874542846 0.5409997883125187 
0.1989999242684653 0.5879998153278027 0.5739997983794556 
0.6209996202302839 0.11699968552489495 0.592000014979718 
0.14300002147724972 0.9419998935699451 0.5969996600221308 
0.3789997454098227 0.28499964373523873 0.7329999294429037 
0.4849998095147558 0.8389997821003834 0.744999730946565 
0.83199955640067 0.4379996710804214 0.7609999142106508 
0.9119994421868006 0.09749956933840524 0.7840000498099735 
0.1439999552415389 0.8769997078878136 0.881999685068466 
0.2509998271936672 0.5319996052106007 0.9049998248803959 
0.5819995879874462 0.15899950253809553 0.9189999961144395 
0.6979996585303547 0.7669996544876135 0.9319997782387883 
0.14499993129120625 0.19099992204602087 0.21799994206243467 
0.8429996870781891 0.7749999692735867 0.40599978783732266 
0.1569998640748573 0.22499970841290862 0.5939999310522759 
0.85499961986184 0.8089997556404744 0.7819997768271638 
0.6209997371793586 0.23300001560025702 0.08559997045208162 
0.34099995869506977 0.7850000645381495 0.241999736938698 
0.6159996695122841 0.1929998053640369 0.42299998562574076 
0.3839998816407623 0.8069998723224584 0.5769997332638576 
0.6589995924579767 0.21499961314834584 0.7579999819509005 
0.3789998140467336 0.7669996623230569 0.9139997484368143 
