System
1.0
4.276324867 -2.544734601 0.0
4.276324867 2.544734601 0.0
-1.230391235 0.0 5.425129654
B Ca Li O
2 2 2 6
direct
0.33500034257203953 0.33500034257203953 0.25199998392812706 
0.6650006419811604 0.6650006419811604 0.7479999522945994 
0.6710007279010077 0.6710007279010076 0.23299998513989528 
0.3290002566521922 0.3290002566521921 0.7669999510828313 
0.0 0.0 0.0 
-7.678745506472307e-08 -7.678745505084528e-08 0.4999999681113632 
0.63500084803263 0.17100000909726168 0.1959999874996544 
0.17100000909726173 0.63500084803263 0.1959999874996544 
0.20000017387440347 0.20000017387440344 0.3499999776779542 
0.8000008106787965 0.8000008106787964 0.6499999585447722 
0.829000975455938 0.36500013652056956 0.8039999487230721 
0.3650001365205696 0.829000975455938 0.8039999487230721 
