System
1.0
-3.045889 -3.052367 -4.298548
3.045889 -3.052367 4.298548
-3.12264 3.052367 4.316241
Ba La Nb O
2 1 1 6
direct
0.9919993856310725 0.24899970930023885 0.24100007777415172 
0.007670121719809492 0.7509999154461918 0.7590000368416632 
0.49999991677472855 5.822897630704255e-07 0.5000000910648927 
0.4999995085785799 0.4999995085785799 5.620177608392234e-17 
0.49399969325428333 0.22699982136526037 0.1870000394576205 
0.9599992352495199 0.6929993633604968 0.18700003945762053 
0.5729995333933477 0.7289995067583197 0.3010000239773507 
0.42699997374091303 0.2710001179026661 0.6990000906607364 
0.039800272016026615 0.30700026135227376 0.8130000751669683 
0.5059998138799776 0.7729998032957255 0.8130000751804667 
