System
1.0
-2.783372 4.820942 0.0
2.783372 4.820942 0.0
0.0 3.21396 -4.939556
Gd O Sc
2 6 2
direct
0.6360002888174445 0.6360002888174446 0.09249992509454281 
0.36400039610394924 0.36400039610394924 0.9079992647118366 
0.9650005330800435 0.5530002370360394 0.2599997894549312 
0.22200004945664087 0.9650005833418231 0.2599997894549312 
0.5530003498593095 0.2220001120181313 0.2599997894549312 
0.44700033492711944 0.7780005727682977 0.7399994007563425 
0.7780006352994184 0.03520010155794662 0.7399994007563425 
0.035100151763055976 0.44700044773520475 0.7399994007563425 
0.8520004735767002 0.8520004735767002 0.4449996396440168 
0.1480002112097287 0.1480002112097287 0.5549995505672569 
