System
1.0
10.402974 0.0 0.0
0.0 7.87492 0.0
0.0 2.184279 8.162182
Cs Ti P O
4 4 8 28
direct
0.30211911616644094 0.1992739115647901 0.4536291111538829 
0.8021193084192303 0.8007259909599495 0.04637101136240564 
0.6978812683391377 0.8007258934846888 0.5463711338786942 
0.1978810760863484 0.1992738140895295 0.9536292336701714 
0.8976833451641214 0.2404089527818141 0.24220605934836037 
0.397683152911332 0.7595909497429254 0.2577940631679282 
0.1023170393414573 0.7595908522676649 0.7577941856842166 
0.6023172315942467 0.24040885530655356 0.7422061818646489 
0.6282162415525566 0.42480993794062083 0.3183340780022004 
0.12821604929976727 0.5751899645841186 0.18166604451408813 
0.3717841429530221 0.5751898671088581 0.6816661670303766 
0.8717843352058113 0.4248098404653603 0.8183342005184889 
0.5965902293921831 0.12999996698551916 0.16934804149577684 
0.09659003713939383 0.8699999355392204 0.3306520810205117 
0.4034101551133955 0.86999983806396 0.8306522035368001 
0.9034103473661849 0.12999986951025863 0.6693481640120655 
0.5679442183776364 0.6071649467808472 0.2729880668909532 
0.06794402612484704 0.3928349557438923 0.22701205562533538 
0.4320561661279423 0.39283485826863174 0.7270121781416239 
0.9320563583807315 0.6071648493055866 0.7729881894072417 
0.7707192963457552 0.4342949472274789 0.2706970663295835 
0.2707191040929658 0.5657049552972607 0.22930305618670502 
0.22928108815982357 0.5657048578220001 0.7293031787029935 
0.7292812804126129 0.43429484975221816 0.770697188845872 
0.6043452323740239 0.32271390311894865 0.49695212176942927 
0.1043450401212346 0.6772859994057909 0.003048000746859295 
0.3956551521315547 0.6772859019305304 0.5030481232631479 
0.895655344384344 0.3227138056436882 0.9969522442857178 
0.5521722123132143 0.3139219595173546 0.20765605088248482 
0.05217202006042505 0.6860779430073849 0.2923440716338037 
0.4478281721923643 0.6860778455321244 0.7923441941500924 
0.9478283644451536 0.31392186204209416 0.7076561733987733 
0.4960301907263022 0.010381856328679124 0.7369631805799431 
0.9960303829790915 0.9896178512455394 0.7630371869689224 
0.5039701937792765 0.9896179487207999 0.263037064452634 
0.003970001526487147 0.01038195380393967 0.23696305806365456 
0.764955294129465 0.0908438574662154 0.731128179150178 
0.2649551018766756 0.909155850108003 0.7688721883986875 
0.23504509037611376 0.9091559475832636 0.2688720658823991 
0.735045282628903 0.09084395494167088 0.23112705663364444 
0.5863662254609981 0.16099680820065915 0.9838362410718704 
0.0863660332082088 0.8390028993735593 0.516164126476995 
0.4136341590445805 0.83900299684882 0.016164003960706576 
0.9136343512973698 0.1609969056759197 0.48383611855558195 
