System
1.0
2.55665694 -4.42825944 1.8e-07
2.55671656 4.42829325 3e-08
4.7e-07 -1.9e-07 11.25435508
Al P O
3 3 12
direct
-3.1538119934706446e-07 0.4999998258254498 0.8333336970292439 
0.49999976585317907 -1.8236807224036482e-07 0.49999975941496067 
0.49999918820762723 0.4999996112509488 0.16666582646940611 
0.49999913489174325 0.49999952648188545 0.6666590178903309 
-4.820652531545796e-07 0.5000000005946097 0.33334059560827656 
0.4999996391686501 -3.075993147199782e-07 -5.200307359992038e-08 
0.19399110438340553 0.7731195487058026 0.41071298561455355 
0.22687148647066438 0.8060056271227254 0.9226237624390846 
0.8060072973660796 0.2268804281883114 0.41071306394691287 
0.2268773066431257 0.420877892303446 0.7440413994823594 
0.19400012306304165 0.42087786550762996 0.2559582723289491 
0.5791323375673776 0.8060053090346252 0.0773758075851431 
0.7731270313496089 0.1939936719127846 0.9226237795443792 
0.4208659586025014 0.1939938108841106 0.07737580342245108 
0.5791267897981607 0.7731192651643614 0.5892865737083817 
0.8059982735982679 0.579121369577829 0.25595824253897287 
0.773121100686382 0.5791206715655447 0.7440413586407225 
0.4208716324417085 0.22687993689553218 0.5892865197212165 
