System
1.0
5.449314 0.0 -0.000607
0.0 5.602424 0.0
-0.002234 0.0 7.763363
Mg Nd O Ti
2 4 12 2
direct
0.5000003670980242 0.0 1.9324415327832087e-07 
-3.66939886729979e-07 0.500000356988587 0.5000001931864768 
0.5120001931723133 0.5520003941154001 0.24900029408887842 
0.9880005411818729 0.0523000373410062 0.25100047883005827 
0.012099459207821866 0.948000676850361 0.7490002940698508 
0.48799980714396185 0.44800031986177397 0.7510004787723819 
0.7110004880347569 0.3000002141931522 0.04630029268225372 
0.8010005524244779 0.7890005633279903 0.0486003283548591 
0.08959988598342145 0.4740003384251805 0.24500012929072593 
0.41000011388103763 0.9740006954137675 0.25500025698530887 
0.6990001822232601 0.2890002063394033 0.4510004444095284 
0.7890002460992654 0.8000005711817393 0.4540004803525948 
0.21099975421700995 0.20000014279543482 0.5460002925086653 
0.30099981809301496 0.7110005076377707 0.5490003284517319 
0.5899998864352374 0.02570001834921337 0.7450005158759514 
0.9100001140391755 0.5260003755519936 0.755000643415939 
0.19899944818534912 0.2110001506491837 0.9510004443518519 
0.2889995120613541 0.7000004997840218 0.9540004802949184 
0.0 0.500000356988587 0.0 
0.5000000001581376 0.0 0.5000003864306302 
