System
1.0
4.748251787 -1.955540217 0.0
4.748251787 1.955540217 0.0
-2.023259942 0.0 5.669818804
Cu O
5 5
direct
0.0 0.0 0.0 
0.35500012626428756 0.35500012626428756 0.18899996013206768 
0.6740002410382196 0.6740002410382196 0.3249999314440318 
0.32600009647671974 0.32600009647671974 0.6749998576145275 
0.6450002112506517 0.6450002112506517 0.8109998289264916 
0.5000001881745907 0.5000001881745907 0.0 
0.8660003192777356 0.8660003192777356 0.17099996392901365 
0.2050000638702714 0.2050000638702714 0.3419999278580273 
0.795000273644668 0.795000273644668 0.657999861200532 
0.13400001823720367 0.13400001823720364 0.8289998251295456 
