System
1.0
4.876551 0.0 0.0
0.000163 5.257872 0.0
0.0 0.0 6.257963
Al Li O
4 4 8
direct
0.0003830488620384721 0.07930003016430608 0.12600006040307066 
0.00038335626575373895 0.5790002202412764 0.37400017929165413 
0.5000003615208247 0.42100016014089353 0.6260003000977954 
0.5000006691090929 0.9210003503319786 0.8740004189863789 
0.4930003582398541 0.418000158999747 0.12400005944429174 
0.4930006658281223 0.9180003491908321 0.376000180250433 
0.99300025382597 0.08160003103918508 0.6240002991390166 
0.9930005616603089 0.5820002213824229 0.8760004199451579 
0.3630001130094399 0.06270002384996207 0.10600005081528165 
0.9010004320627358 0.4020001529136324 0.14600006999085963 
0.9010007396510039 0.9020003431047173 0.3540001697038651 
0.3630004207822611 0.5630002141551617 0.3940001888794432 
0.8630004458015202 0.43700016622700827 0.6060002905100064 
0.40100014257908356 0.09810003731549087 0.6460003096855844 
0.4010004501058341 0.5980002274685376 0.8540004093985899 
0.8630007533897884 0.9370003564180934 0.894000428574168 
