System
1.0
2.584841 -4.688224 0.0
2.584841 4.688224 0.0
0.0 0.0 13.820793
Na Zn Si O
4 4 4 14
direct
0.942558580988132 0.014720789355486902 0.2500000542660731 
0.014720789355486902 0.942558580988132 0.7500001627982192 
0.992232383865926 0.992232383865926 0.5000001085321462 
0.992232383865926 0.992232383865926 0.0 
0.22819698825153986 0.6572113542872633 0.4200060911683052 
0.6572113542872634 0.2281969882515398 0.5799941258959872 
0.22819698825153986 0.6572113542872633 0.079994017363841 
0.6572113542872634 0.2281969882515398 0.9200061997004513 
0.5710402767364022 0.3316500724883081 0.35967507807259935 
0.3316500724883081 0.5710402767364022 0.6403251389916931 
0.5710402767364022 0.3316500724883081 0.1403250304595468 
0.3316500724883081 0.5710402767364022 0.8596751866047455 
0.27851409067571326 0.35173815315059714 0.3709870805280306 
0.35173815315059714 0.27851409067571326 0.6290131365362617 
0.27851409067571326 0.35173815315059714 0.12901302800411552 
0.35173815315059714 0.27851409067571326 0.8709871890601767 
0.549857321751093 0.08226092279711898 0.4366420947793867 
0.08226092279711898 0.549857321751093 0.5633581222849057 
0.549857321751093 0.08226092279711898 0.06335801375275943 
0.08226092279711898 0.549857321751093 0.9366422033115328 
0.8758333911545344 0.6514431997044745 0.3740150811853013 
0.6514431997044744 0.8758333911545343 0.6259851358789911 
0.8758333911545344 0.6514431997044745 0.12598502734684489 
0.6514431997044744 0.8758333911545343 0.8740151897174474 
0.19217998793563712 0.5627893041400814 0.7500001627982192 
0.5627893041400814 0.1921799879356371 0.2500000542660731 
