System
1.0
-2.078307458 2.078307458 10.747730763
2.078307458 -2.078307458 10.747730763
2.078307458 2.078307458 -10.747730763
Ba O Sc
3 6 2
direct
0.3180000225753717 0.3180000225753717 7.527588335387276e-34 
0.5000000354958675 0.5000000354958675 0.0 
0.6820000484163633 0.6820000484163633 1.3582077336331517e-33 
0.1940000137723966 0.1940000137723966 -2.081553407365159e-35 
0.8060000572193384 0.8060000572193384 -1.7933383201915217e-34 
0.584999394544422 0.08510000597669157 0.49999938844541947 
0.9149994179069897 0.41500002946156994 0.4999993884454196 
0.08510000597669155 0.584999394544422 0.49999938844541947 
0.41500002946157 0.9149994179069896 0.4999993884454195 
0.1030000073121487 0.1030000073121487 2.0415235341465984e-35 
0.8970000636795863 0.8970000636795863 1.4702913786451218e-33 
