System
1.0
4.686120571 0.0 0.0
0.0 6.479749696 0.0
-0.209199421 0.0 5.242437659
As Cd H O
2 2 2 8
direct
2.590534398318093e-08 0.20299999047617576 0.2499998883630523 
7.771603194954279e-08 0.7969999626084339 0.7499996650891569 
0.5000000868299469 0.783999963218334 0.2499998883630523 
0.5000001386406349 0.2159999898662757 0.7499996650891569 
0.0 0.4999999765423048 0.0 
5.181068796636186e-08 0.4999999765423048 0.4999997767261046 
0.8160001036567041 0.37499998240672866 0.04079998178085014 
0.2520000390682449 0.08239999613417184 0.08069996396359329 
0.7480001345605624 0.08239999613417184 0.4189998128964757 
0.1840000699824654 0.37499998240672866 0.45899979503456406 
0.8160001554881162 0.6249999706778812 0.5409997584176452 
0.2520000909100193 0.9179999569316718 0.5809997405557336 
0.7480001863712504 0.9179999569316718 0.9189995896225804 
0.18400012179315337 0.6249999706778812 0.9589995717606686 
