System
1.0
5.832550168 0.0 0.0
0.0 5.633565205 0.0
-1.891597228 0.0 6.915562064
K La O Si
2 2 8 2
direct
0.1970002505155613 0.5409995395291086 0.4280001277397637 
0.8030003503471836 0.04119996493271585 0.5720001707176281 
0.7300000528905032 0.005569995259107458 0.055700016624076726 
0.27000054780062416 0.5059995693192771 0.9440002817437778 
0.9000000487486303 0.5809995054832016 0.03990001190844993 
0.42700012099043827 0.7929993250398948 0.19000005670690445 
0.4650001403908693 0.24999978721308158 0.222000066257541 
0.08480018721758524 0.027899976252979908 0.32300009640173755 
0.9150004136393989 0.5279995505940284 0.6770002020556543 
0.5350004604718757 0.7499993616392447 0.7780002321998509 
0.5730004798723066 0.29299975061373157 0.8100002417504875 
0.09990055205402823 0.0805999313974975 0.9600002865190961 
0.267000113521525 0.03469997046517573 0.1850000552146175 
0.7330004873412198 0.5349995446359946 0.8150002432427743 
