System
1.0
6.501449 6.602074 0.0
-6.501449 6.602074 0.0
0.0 0.485195 12.850623
Yb P O
4 20 56
direct
0.46334521176137833 0.5366552004854321 0.2500000583629428 
0.5366550068616596 0.46334501813760576 0.7500001750888285 
0.01798528026302026 0.9820151319837902 0.2500000583629428 
0.9820149383600176 0.017985086639247635 0.7500001750888285 
0.6827741197719024 0.024288221054846827 0.11305602639312347 
0.975712191192351 0.3172262924752953 0.3869430903325287 
0.31722609885152286 0.9757119975685785 0.8869432070584145 
0.024288027430687184 0.6827739261477425 0.6130571431192425 
0.4269053581868986 0.9379492795822798 0.24423105701615958 
0.06205113266453071 0.5730950540599118 0.25576905970972613 
0.5730948604361393 0.062050939040758216 0.7557691764356118 
0.9379490859585071 0.426905164563126 0.7442311737420452 
0.6299282536070869 0.32589830037050127 0.03244600757457618 
0.6741021118763092 0.37007215863972354 0.4675541091513095 
0.37007196501595097 0.6741019182525366 0.9675542258771952 
0.3258981067467287 0.6299280599833145 0.5324461243004619 
0.45420402346710304 0.18639406465945238 0.3873400904252091 
0.8136063475873581 0.5457963887797074 0.11266002630067655 
0.5457961951559347 0.8136061539635855 0.6126601430265622 
0.18639387103567992 0.4542038298433305 0.8873402071510949 
0.17612989521718855 0.12007090383972659 0.4911621146626389 
0.8799295084070838 0.8238705170296219 0.008838002063246756 
0.8238703234058494 0.8799293147833113 0.5088381187891324 
0.12007071021595406 0.176129701593416 0.9911622313885246 
0.7197344868307777 0.8931584601561128 0.039015009108120856 
0.10684195209069769 0.2802659254160328 0.46098510761776484 
0.2802657317922603 0.10684175846692516 0.9609852243436505 
0.8931582665323402 0.7197342932070051 0.5390151258340066 
0.7778861123830292 0.038491226110736014 0.20158304705990845 
0.9615091861360743 0.22211429986378117 0.29841706966597725 
0.2221141062400088 0.9615089925123018 0.798417186391863 
0.03849103248696353 0.7778859187592566 0.701583163785794 
0.6014010449604205 0.2126121047607727 0.443470103528857 
0.7873883074860377 0.39859936728639 0.056530013197028633 
0.39859917366261743 0.7873881138622653 0.5565301299229143 
0.21261191113700023 0.6014008513366479 0.9434702202547427 
0.5274782066418625 0.3540482333174502 0.12153902837349483 
0.6459521789293601 0.47252220560494795 0.3784610883523908 
0.47252201198117544 0.6459519853055876 0.8784612050782765 
0.35404803969367776 0.52747801301809 0.6215391450993805 
0.14310287978395117 0.015049899480018938 0.4087260954178087 
0.9849505127667914 0.8568975324628592 0.09127402130807696 
0.8568973388390867 0.984950319143019 0.5912741380339627 
0.409952304381051 0.6351172697480076 0.07624001779836305 
0.01504970585624641 0.14310268616017863 0.9087262121436944 
0.08141903177538042 0.1386810229678067 0.10149702369465444 
0.13868082934403422 0.08141883815160789 0.60149714042054 
0.9185811868476575 0.8613191956552312 0.898503209757117 
0.3005789052867448 0.40287188955287007 0.8151901903075494 
0.5971281354463953 0.6994211197125205 0.6848101598701075 
0.699421313336293 0.5971283290701679 0.18481004314422186 
0.40287208317664264 0.3005790989105174 0.3151900735816638 
0.1566327858173449 0.34684475656048686 0.9847252298857955 
0.6531552684387786 0.8433672391819205 0.5152751202918615 
0.843367432805693 0.6531554620625512 0.015275003565975808 
0.3468449501842593 0.1566329794411174 0.48472511315990985 
0.9735050430674596 0.2725111508886379 0.7243021690895849 
0.7274888741106275 0.026494981931805793 0.7756981810880722 
0.026495175555578284 0.7274890677343999 0.27569806436218647 
0.2725113445124104 0.9735052366912321 0.22430205236369924 
0.03369386741199966 0.48637579778414736 0.8391261958954511 
0.5136242272151179 0.9663061575872657 0.660874154282206 
0.9663063512110381 0.5136244208388904 0.16087403755632027 
0.48637599140792 0.033694061035772174 0.3391260791695654 
0.15708008811576146 0.6810770075188177 0.5321921242411651 
0.3189230174804477 0.842919936883504 0.9678082259364919 
0.8429201305072764 0.3189232111042201 0.4678081092106063 
0.6810772011425904 0.15708028173953398 0.032192007515279425 
0.004357948590442251 0.5171608697152682 0.6425701500091047 
0.4828391552839973 0.9956420764088231 0.8574302001685523 
0.9956422700325955 0.4828393489077695 0.3574300834426667 
0.5171610633390407 0.004358142214214805 0.14257003328321904 
0.7873350617019367 0.476093109574642 0.7672061791055997 
0.5239069154246234 0.21266496329732867 0.7327941710720572 
0.21266515692110116 0.5239071090483959 0.23279405434617165 
0.4760933031984146 0.7873352553257092 0.267206062379714 
0.6351170761242352 0.40995211075727844 0.5762401345242487 
0.5900479142419869 0.3648829488750303 0.9237602156534084 
0.3648831424988029 0.5900481078657595 0.42376009892752264 
0.8613193892790036 0.91858138047143 0.3985030930312312 
