System
1.0
3.816642 0.0 0.0
0.0 3.816642 0.0
0.0 0.0 3.816642
B O Ru
1 3 1
direct
0.0 0.0 0.0 
0.5000002620105642 0.5000002620105642 0.0 
0.5000002620105642 0.0 0.5000002620105642 
0.0 0.5000002620105642 0.5000002620105642 
0.5000002620105642 0.5000002620105642 0.5000002620105642 
