System
1.0
3.66348 -4.691772 0.0
3.66348 4.691772 0.0
-2.345213 0.0 5.471178
Eu Al B O
1 3 4 12
direct
0.0 0.0 0.0 
-3.875343447047749e-07 0.44338380147065765 0.5566157965279884 
0.4433839758658246 0.5566160241341754 0.0 
0.5566158852160942 -3.5205725903340724e-07 0.4433838379201562 
0.499999736773787 0.499999736773787 0.49999981722407233 
0.4999995985509479 0.05883441049185712 0.941164655955388 
0.05883454871469626 0.9411649248328777 0.49999981722407233 
0.941165063055717 0.49999987499662624 0.05883497849275658 
0.49999978331866324 0.648556846645297 0.3514428715293593 
0.6485568001004207 0.3514426734471534 0.49999981722407233 
0.3514426269022771 0.4999996902289108 0.6485567629187854 
0.4999998651736292 0.9098130398680409 0.09018696703197483 
0.9098129114681986 0.09018656207937532 0.49999981722407233 
0.09018643367953313 0.49999960837394486 0.9098126674161698 
0.6208147194329328 0.027949466707415525 0.7729657174408446 
0.02794951437833955 0.7729658319625349 0.6208147730599249 
0.7729660177149937 0.6208149528563156 0.027949989782825643 
0.3791845206912584 0.22703345583258033 0.972049644665319 
0.9720500068401584 0.37918475411464125 0.22703391700730008 
0.22703364158503925 0.9720499591692345 0.3791848613882197 
