System
1.0
0.0 0.0 -4.144566
-2.957366 -2.991416 0.0
-2.957366 2.991416 0.0
O Pb Zr
3 1 1
direct
0.4999995174408926 0.02699996029419555 0.44099940671094756 
0.0 0.5579992461683024 0.4419994012785845 
0.4999995174408926 0.5589992407359394 0.9729986871526914 
0.0 0.9549987153198126 0.0445999326680954 
0.4999995174408926 0.5069993143633402 0.49299933308354676 
