System
1.0
7.903564 0.0 0.0
0.0 7.903564 0.0
0.0 0.0 10.612193
Zn Ag P O
4 8 8 28
direct
0.0 0.5000002530505241 0.7500002120203275 
0.5000002530505241 0.0 0.2500000706734425 
0.0 0.5000002530505241 0.2500000706734425 
0.5000002530505241 0.0 0.7500002120203275 
0.6394933236480775 0.6394933236480775 0.0 
0.8605074355034946 0.1394930705975535 0.500000141346885 
0.1394930705975535 0.8605074355034946 0.500000141346885 
0.3605071824529706 0.3605071824529706 0.0 
0.2991851514178421 0.2991851514178421 0.500000141346885 
0.7991854044683662 0.20081510163268199 0.0 
0.700815354683206 0.700815354683206 0.500000141346885 
0.20081510163268199 0.7991854044683662 0.0 
0.8627784366528501 0.8627784366528501 0.788649222946159 
0.13722206944819806 0.13722206944819806 0.788649222946159 
0.8627784366528501 0.8627784366528501 0.211351059747611 
0.36277818360232605 0.637222322498722 0.288649081599274 
0.637222322498722 0.36277818360232605 0.288649081599274 
0.637222322498722 0.36277818360232605 0.711351201094496 
0.36277818360232605 0.637222322498722 0.711351201094496 
0.13722206944819806 0.13722206944819806 0.211351059747611 
0.3049861543537343 0.07983204040305887 0.15022804246851967 
0.6950133517468077 0.9201684656979893 0.15022804246851967 
0.07983204040305887 0.3049861543537343 0.8497722402252503 
0.5798322934535829 0.1950140986967898 0.6502281838154047 
0.4201682126474652 0.8049874074047645 0.6502281838154047 
0.1950140986967898 0.5798322934535829 0.34977209887836536 
0.8049874074047645 0.4201682126474652 0.34977209887836536 
0.9201684656979893 0.6950133517468077 0.8497722402252503 
0.6950133517468077 0.9201684656979893 0.8497722402252503 
0.3049861543537343 0.07983204040305887 0.8497722402252503 
0.9201684656979893 0.6950133517468077 0.15022804246851967 
0.4201682126474652 0.8049874074047645 0.34977209887836536 
0.5798322934535829 0.1950140986967898 0.34977209887836536 
0.8049874074047645 0.4201682126474652 0.6502281838154047 
0.1950140986967898 0.5798322934535829 0.6502281838154047 
0.07983204040305887 0.3049861543537343 0.15022804246851967 
0.8653774379682067 0.8653774379682067 0.6452541824092858 
0.1346230681328414 0.1346230681328414 0.6452541824092858 
0.8653774379682067 0.8653774379682067 0.35474610028448417 
0.3653771849176827 0.6346233211833655 0.14525404106240086 
0.0 0.0 0.15729704446688195 
0.5000002530505241 0.5000002530505241 0.657297185813767 
0.5000002530505241 0.5000002530505241 0.34270309688000306 
0.0 0.0 0.8427032382268881 
0.1346230681328414 0.1346230681328414 0.35474610028448417 
0.3653771849176827 0.6346233211833655 0.8547462416313691 
0.6346233211833655 0.3653771849176827 0.8547462416313691 
0.6346233211833655 0.3653771849176827 0.14525404106240086 
