System
1.0
7.53500383 0.0 0.0
0.0 10.32922916 -7.85e-06
0.0 4.12782968 14.18829941
Cs Cu O
12 20 16
direct
0.09005556577473676 0.3210876728825455 0.10874218413356529 
0.5900558199220493 0.6789121780571312 0.3912579466078562 
0.9099449425198883 0.6789121708760489 0.8912579258160721 
0.4099446883725757 0.32108766570146324 0.6087421633417812 
0.7016735966567365 0.27567403769834553 0.9183312035862904 
0.20167334250942393 0.7243257988791667 0.5816688855715628 
0.29832691163788866 0.7243258060602489 0.08166890636334692 
0.7983271657852011 0.27567404487942776 0.4183312243780746 
0.17146573715506827 0.10415179220603175 0.9063387880936574 
0.6714659913023808 0.8958480443714804 0.5936613010641958 
0.8285347711395568 0.8958480515525628 0.09366132185597997 
0.32853451699224423 0.104151799387114 0.4063388088854415 
0.07710034918967316 0.06628989157654187 0.6279203839339518 
0.04408644240889033 0.4301692479421139 0.7676969532613587 
0.9559140658857347 0.5698305958164807 0.2323031566882786 
0.45591381173842216 0.43016925512319615 0.26769697405314286 
0.676502173862244 0.06393313719807825 0.25978917888503406 
0.17650191971493148 0.9360667137415986 0.2402109518563874 
0.32349833443238096 0.9360667065605163 0.7402109310646033 
0.8234985885796936 0.06393313001699602 0.7597891580932499 
0.795563424380407 0.5293301758943876 0.626969414139488 
0.2955631702330944 0.47066966068312477 0.8730306750183652 
0.20443708391421808 0.47066966786420705 0.37303069581014947 
0.7044373380615305 0.5293301830754696 0.12696943493127208 
0.9347504151283702 0.29446574898513694 0.6430979878790383 
0.43475016098105773 0.7055340875923752 0.8569021012788149 
0.06525009316625478 0.7055340947734575 0.35690212207059907 
0.5652503473135673 0.2944657561662192 0.1430980086708224 
0.9229001591049519 0.9337099521820527 0.3720797260156856 
0.42289990495763935 0.06628989875762405 0.12792040472573585 
0.5440866965562028 0.5698305886353983 0.7323031358964944 
0.5771006033369857 0.9337099450009705 0.8720797052239014 
0.4253219361887442 0.3994235976761197 0.39367013415574054 
0.9253221903360567 0.6005762532635571 0.10632999658568094 
0.5746785721058808 0.6005762460824748 0.6063299757938968 
0.07467831795856833 0.39942359049503745 0.8936701133639564 
0.29661162076601594 0.004481240539016802 0.6144746851270071 
0.7966118749133284 0.9955185960384955 0.8855254040308461 
0.7033888875286092 0.9955186032195776 0.38552542482263025 
0.20338863338129662 0.004481247720099035 0.11447470591879126 
0.8509151825153939 0.13328541201848532 0.6315954339331779 
0.35091492836808125 0.8667144245590268 0.8684046552246754 
0.14908532577923125 0.8667144317401092 0.36840467601645943 
0.6490855799265437 0.13328541919956757 0.13159545472496204 
0.5221584254101862 0.5397654810726406 0.8596079460468433 
0.02215817126287363 0.4602343555048717 0.6403921431110099 
0.4778420828844389 0.46023436268595397 0.14039216390279402 
0.9778423370317514 0.5397654882537228 0.3596079668386274 
