System
1.0
-4.354373 6.936208 9.58086
4.354373 -6.936208 9.58086
4.354373 6.936208 -9.58086
Al P O
10 10 40
direct
0.9452228417327331 0.20459486789788192 0.3571467096306149 
0.6525519859036851 0.9119242123794026 0.3571471982830878 
0.821312896943864 0.7722062124090281 0.6657121093528922 
0.3474480140963148 0.7045952123794027 0.25937222647571756 
0.1078148968269414 0.05941421317481049 0.6672291100017519 
0.17868695888518366 0.8443995568905489 0.9508935157757326 
0.39350589694386406 0.3443992124090281 0.6657121093528922 
0.8921848148311541 0.5594142131748105 0.9515990280059646 
0.6064938147142315 0.27220621240902815 0.9508930271232595 
0.05477701409631486 0.4119242123794028 0.25937222647571756 
0.39056204192981475 0.7192891262938151 0.03789316822362985 
0.34494187017333666 0.07803012631482857 0.6335929964881651 
0.11403503920440702 0.43396012674164114 0.04799516594604815 
0.8186038977588624 0.1473307818122943 0.03789267957115682 
0.05556301434428881 0.7886514707963493 0.6335934851406381 
0.655057841484759 0.2886511263148286 0.7330879677995874 
0.9444368414847587 0.5780301263148285 0.7330879677995873 
0.6094379580701852 0.6473311262938151 0.32872708436400044 
0.18139595807018527 0.21928912629381517 0.3287270843640004 
0.8859649607955931 0.9339601267416413 0.31992508753723403 
0.9116348927020663 0.2775688195292316 0.11017471223129792 
0.8966628322513304 0.05402282027021131 0.3208996525215418 
0.8901339595934955 0.7586850059836441 0.14881896557713958 
0.33290788985151826 0.1980231702575803 0.6291280601090986 
0.33260603687301854 0.6985401640107524 0.11017520088377092 
0.305595929479067 0.2996751644230968 0.4832270939021638 
0.011704068710722413 0.49942517184460666 0.011129240555329078 
0.8197458967237151 0.9694053498774793 0.8660052466011944 
0.6944037821790284 0.1776311644230968 0.9940789466021253 
0.5388628714322374 0.3318451645715683 0.6847550360038057 
0.949441840628816 0.4044720053367077 0.5604618459655236 
0.9882959312892774 0.9994251718446066 0.4877211031338841 
0.7668769764222826 0.9242371647517321 0.3209001411740146 
0.10986589623540807 0.25868535046550933 0.8685522467009172 
0.6673939631269815 0.7775691640107523 0.36593412713773377 
0.6835519294790671 0.6776311644230967 0.4832270939021638 
0.2331230235777175 0.5540231647517322 0.15736018832944962 
0.0505580152002318 0.6110203498182285 0.4550303650184602 
0.18025395910533273 0.04625900539595855 0.14965896450129124 
0.24035787972898742 0.06281116505177557 0.656678044780763 
0.6559908406286717 0.1110200053363632 0.560461845965035 
0.9061328319291081 0.5628111650517754 0.8224529969808836 
0.6033999591053327 0.46940500539595853 0.14965896450129124 
0.6670918218065773 0.29622017025758035 0.8651149920641575 
0.8457008756809554 0.16362382712160428 0.18022570280255973 
0.5166020198519076 0.8345251716031251 0.1802261914550327 
0.09386702389993953 0.9163205095332965 0.6566785334332359 
0.4833979801480923 0.663624171603125 0.3179231517512175 
0.14708998439681023 0.831845509053089 0.7929824934498992 
0.3164479263499807 0.7996755089046177 0.9940794352545983 
0.10333702357771751 0.42423716475173207 0.15736018832944962 
0.9311048898515182 0.7962201702575803 0.6291280601090986 
0.7596418319291082 0.41632016505177555 0.8224529969808836 
0.34400901520037597 0.9044723498185732 0.45503036501894895 
0.4611368402258581 0.14589216457156823 0.7929820047974263 
0.396599896723715 0.5462593498774793 0.8660052466011943 
0.06889496597752941 0.698023514739101 0.8651154807166305 
0.8529098714322374 0.6458921645715683 0.6847550360038058 
0.15429898014809235 0.33452517160312506 0.3179231517512175 
0.08836496312698142 0.19854016401075242 0.36593412713773377 
