System
1.0
0.0 0.0 -6.144386
-6.038339 3.486236 2.048129
6.038339 3.486235 2.048129
O Si
12 6
direct
0.8249992809877957 0.7149994806280501 0.07879958598813241 
0.26599960993714744 0.6929994150220357 0.2049994958389491 
0.1109997578998485 0.3639995802625884 0.2849995933456543 
0.5729994174644741 0.5129994684912327 0.306999502606569 
0.2529997032076494 0.0787997173832593 0.3639996701517354 
0.060499632387508315 0.7949991691874305 0.4869992201948265 
0.9399991812608663 0.20499954002363927 0.5129994890162433 
0.7469991108101668 0.9209989919591082 0.6359990391575103 
0.4269993965094007 0.48699924071983713 0.6929992066045008 
0.8889990560740264 0.6359991289484814 0.7149991158654155 
0.7339992040367275 0.306999294189034 0.7949992133721208 
0.17499953304914315 0.2849992287098799 0.9209991233829192 
0.2829996565307626 0.4649995799245596 0.18099962695735325 
0.10199966410798997 0.8189992821947656 0.28399937079527504 
0.1819996724977157 0.2839995186075086 0.46499948863238305 
0.8179991414761592 0.7159991906035611 0.5349992205786868 
0.8979991498658851 0.18099942701630412 0.7159993384157947 
0.7169991574431123 0.5349991292865103 0.8189990822537164 
