System
1.0
5.578033 0.012048 0.0
0.012686 5.87476 0.0
0.0 0.0 7.830364
O Sb Yb
11 4 4
direct
0.6790001477111534 0.30399976853864336 0.05630002875985269 
0.8009998527180074 0.8069997276101064 0.058500029883683524 
0.3719995140926918 0.9569998743531962 0.25000012770804925 
0.8009998527180074 0.8069997276101064 0.44100022527699884 
0.6790001477111534 0.30399976853864336 0.4440002268094954 
0.3099996671460338 0.6969998951465065 0.56900029066352 
0.1859999624961817 0.1919999367551902 0.56900029066352 
0.6220002992983077 0.04979978763276379 0.7500003831241477 
0.8940000928400623 0.5419996954567127 0.7500003831241477 
0.1859999624961817 0.1919999367551902 0.9310004755847754 
0.3099996671460338 0.6969998951465065 0.9310004755847754 
0.016799653365714488 0.49599999499161546 0.008870004531081586 
0.016799653365714488 0.49599999499161546 0.49100025081860865 
0.4920002620875736 0.0040498319662155965 0.5040002574594272 
0.4920002620875736 0.0040498319662155965 0.9960005087888681 
0.9630004779416333 0.05679967117649118 0.25000012770804925 
0.5449998790525236 0.5779998147085867 0.25000012770804925 
0.49799995198129043 0.44099983055965275 0.7500003831241477 
0.01299934153079545 0.9279999969249049 0.7500003831241477 
