System
1.0
5.399253656 0.0 0.0
0.0 9.610906321 0.0
0.0 0.0 3.139745713
Mn O Sn
4 8 2
direct
0.5600003791934065 0.17799993186264357 0.499999317302333 
0.05980004049243876 0.32199987674028785 0.499999317302333 
0.940000636503218 0.677999740465575 0.499999317302333 
0.4400002979376765 0.8219996853432191 0.499999317302333 
0.8550005789470759 0.1989999238239667 0.0 
0.35500024038153444 0.3009998847789647 0.0 
0.6450004367495485 0.6989997324268981 0.0 
0.14500009818400703 0.8009996933818961 0.0 
0.24800016792850857 0.04109998426716096 0.499999317302333 
0.7480005064940501 0.4589998242974911 0.499999317302333 
0.2520001706370329 0.5409997929083719 0.499999317302333 
0.7520005092025744 0.9589996329004224 0.499999317302333 
0.0 0.0 0.0 
0.5000003385655415 0.4999998086029314 0.0 
