System
1.0
7.020492 0.0 0.0
0.465179 7.257171 0.0
2.797529 0.78814 7.000521
Mo O Rb
4 14 4
direct
0.8290001725973757 0.34900004725575273 0.05380000768514338 
0.7550000147625998 0.91600012141086 0.3100000442824247 
0.24499992018308905 0.08420000089810285 0.6900000985641066 
0.1709997624182942 0.6510000750287537 0.9460001351328187 
0.2769999476182994 0.7970001090017673 0.052900007556581516 
0.8780001077461979 0.8140001106787552 0.0958000136846977 
0.05269991481830451 0.4700000624985872 0.14600002085559358 
0.6130000640524658 0.4600000601898383 0.20600002942638546 
0.8530001665544061 0.15500001721612164 0.2670000381400239 
0.48899993107361944 0.9080001195948875 0.35600005085336517 
0.8300000234334118 0.7760000994668096 0.48100006870918155 
0.16999991154259136 0.22400002281459427 0.5190000741373498 
0.5110000039175404 0.09190000267273686 0.6440000919931663 
0.14699976842159682 0.845000105065282 0.7330001047065074 
0.38699987092353744 0.5400000620915655 0.794000113420146 
0.9470000200722344 0.5300000597828165 0.8540001219909378 
0.12199982726947205 0.18600001160575114 0.9040001291332643 
0.7229999873775371 0.20300001328118775 0.9470001352756651 
0.31500003482653804 0.16600002054692672 0.1500000214269797 
0.23499988820235862 0.6140000779042128 0.43200006170970157 
0.7650000467736444 0.386000044377191 0.5680000811368298 
0.6849999001494652 0.834000101734477 0.8500001214195516 
