System
1.0
5.25969301 0.0 0.0
0.0 9.48592382 0.0
0.0 0.0 14.17434422
K Cu P O
8 4 8 28
direct
0.7500004292078051 0.37571901130277774 0.2987969789581367 
0.2500001430692684 0.6242813913993324 0.7012033187629565 
0.7500004292078051 0.6295526135220638 0.09017623684735983 
0.7500004292078051 0.8704479905311013 0.5901763857079063 
0.7500004292078051 0.12428119004827731 0.7987971278186833 
0.2500001430692684 0.8757192126538327 0.20120316990240983 
0.2500001430692684 0.3704477891800463 0.9098240608737334 
0.2500001430692684 0.12955241217100874 0.4098239120131868 
0.2500001430692684 0.2505057508791539 0.1703785107252614 
0.2500001430692684 0.2494944504719012 0.670378659585808 
0.7500004292078051 0.7494946518229563 0.8296217869958318 
0.7500004292078051 0.7505059522302089 0.3296216381352852 
0.2500001430692684 0.7239157515222833 0.9474514220761892 
0.2500001430692684 0.7760848525308819 0.44745127321564254 
0.7500004292078051 0.06822890747591395 0.19420383781856168 
0.2500001430692684 0.5682291088269691 0.30579631104198496 
0.7500004292078051 0.22391555017122824 0.5525490245054506 
0.7500004292078051 0.2760846511798268 0.05254887564490405 
0.2500001430692684 0.9317714952261961 0.8057964599025315 
0.7500004292078051 0.4317712938751411 0.6942039866791083 
0.7500004292078051 0.5894908773891245 0.6985381679694851 
0.2500001430692684 0.72037732009735 0.05217514553363674 
0.5124244932486215 0.157182033297511 0.596657707637532 
0.2500001430692684 0.8887707179096993 0.9161405927542976 
0.2500001430692684 0.08949067603806955 0.8014622786121547 
0.9916341674891745 0.13421873405014564 0.2350552699808911 
0.5083666909264356 0.13421873405014564 0.2350552699808911 
0.008366404787898907 0.6342189354012007 0.26494487887965545 
0.9875763651669887 0.34281816805354404 0.09665755877698551 
0.2500001430692684 0.7796232839558151 0.5521752943941832 
0.5083666909264356 0.36578146730090944 0.7350554188414378 
0.7500004292078051 0.9105097266640405 0.1985380191089385 
0.9916341674891745 0.36578146730090944 0.7350554188414378 
0.5124244932486215 0.34281816805354404 0.09665755877698551 
0.7500004292078051 0.220377118746295 0.44782500332690983 
0.4875760790284519 0.8428183694045991 0.4033425900835611 
0.7500004292078051 0.2796230826047601 0.9478251521874564 
0.2500001430692684 0.41050952531298546 0.30146212975160813 
0.2500001430692684 0.6112298861434659 0.416140443893751 
0.012424207110084816 0.8428183694045991 0.4033425900835611 
0.9875763651669887 0.157182033297511 0.596657707637532 
0.7500004292078051 0.3887705165586443 0.5838598538273422 
0.008366404787898907 0.8657816686519644 0.7649450277402021 
0.4875760790284519 0.6571822346485661 0.9033427389441077 
0.4916338813506378 0.6342189354012007 0.26494487887965545 
0.012424207110084816 0.6571822346485661 0.9033427389441077 
0.4916338813506378 0.8657816686519644 0.7649450277402021 
0.7500004292078051 0.11122968479241073 0.0838597049667956 
