System
1.0
6.56037443 0.23685171 -0.71081146
-0.8168601 6.51357581 -0.71129184
0.20144172 0.23726593 6.59568057
Tl Te O
6 1 6
direct
0.7263150677590401 0.43901993735001527 0.8727855605254699 
0.43902096163691184 0.8727848686717982 0.7263140949565842 
0.872786408873419 0.7263139069445226 0.4390202445662381 
0.2736857409611198 0.5609790435574589 0.12721400282145634 
0.5609798470832479 0.12721411223567589 0.2736854683903419 
0.12721439984674068 0.27368507396295155 0.5609793187806881 
0.0 0.0 0.0 
0.013051877969419113 0.9725251154243472 0.7073272394521605 
0.9725268035282454 0.7073273424761977 0.013051453345511851 
0.7073282375891825 0.013051366872061865 0.9725261179899155 
0.9869489307507406 0.02747386548312683 0.2926723238947657 
0.027474005191914466 0.29267163843127625 0.9869481100014142 
0.29267257113097733 0.9869476140354121 0.02747344535701062 
