System
1.0
2.6186 8.335026 0.0
-2.6186 8.335026 0.0
0.0 3.664215 7.362855
Sr Ti P O
2 2 4 16
direct
0.19349272238121765 0.8065067223812177 0.24999983022901423 
0.8065066470459449 0.19349264704594496 0.7499994906870426 
-1.9531084572684907e-07 0.4999998046891543 0.49999966045802846 
0.499999880024427 -1.1997557299063163e-07 0.0 
0.5968447896541169 0.11896678965411697 0.2560948260899976 
0.8810326551083182 0.4031546551083182 0.24390483436803087 
0.40315457977304564 0.8810325797730456 0.7439044948260594 
0.11896671431884415 0.5968447143188441 0.756094486548026 
0.7987765391125591 0.8731475391125592 0.3962757308953314 
0.1268519056498761 0.20122290564987613 0.10372392956269709 
0.2012228303146034 0.12685183031460331 0.6037235900207256 
0.8731474637772865 0.7987764637772864 0.8962753913533598 
0.33418377681472106 0.37278477681472105 0.35539275865832026 
0.6272146679477142 0.6658156679477142 0.14460690179970825 
0.6658155926124414 0.6272145926124414 0.6446065622577368 
0.37278470147944825 0.33418370147944826 0.8553924191163486 
0.5163438350328615 0.05058783503286148 0.19201586960501757 
0.9494116097295738 0.4836556097295738 0.3079837908530108 
0.483655534394301 0.949411534394301 0.8079834513110393 
0.05058775969758865 0.5163437596975887 0.6920155300630461 
0.7301057676185922 0.17303976761859222 0.1040049293718745 
0.8269596771438431 0.26989367714384305 0.3959947310861539 
0.26989360180857025 0.8269596018085703 0.8959943915441824 
0.17303969228331945 0.7301056922833195 0.604004589829903 
