System
1.0
-3.722360689 3.722360689 3.290209698
3.722360689 -3.722360689 3.290209698
3.722360689 3.722360689 -3.290209698
Eu Mo O
2 2 8
direct
0.0 0.0 0.0 
0.7500000696019493 0.24999997705313642 0.5000000925488131 
0.4999999541062728 0.4999999541062728 0.0 
0.2499999770531364 0.7500000696019494 0.5000000925488131 
0.5180000042316086 0.3309999696183526 0.18700003461325607 
0.6689999385941932 0.8559999732074491 0.18700003461325607 
0.08089999256055068 0.3940000505146174 0.31300005793555696 
0.23199992692780053 0.9190000540898698 0.313000057935557 
0.0808999925605507 0.7680001197411296 0.6870001271620692 
0.6059999961543128 0.9190000540898698 0.6870001271620693 
0.14400007344763668 0.33100010806089286 0.8130001504843699 
0.6690000770367334 0.4820000424234772 0.81300015048437 
