System
1.0
6.171852 0.0 0.0
0.0 6.171852 0.0
0.0 0.0 8.505393
Li Nb Zn O
4 4 4 16
direct
0.2194240711047741 0.0 0.250000088179378 
0.0 0.2194240711047741 0.0 
0.0 0.7805762529471715 0.500000176358756 
0.7805762529471715 0.0 0.7500002645381341 
0.7868322549744404 0.5000001620259727 0.7500002645381341 
0.21316806907750513 0.5000001620259727 0.250000088179378 
0.5000001620259727 0.7868322549744404 0.500000176358756 
0.5000001620259727 0.21316806907750513 0.0 
0.2591000839618591 0.2591000839618591 0.6250002204484449 
0.2591000839618591 0.7409002400900864 0.8750003086278231 
0.7409002400900864 0.7409002400900864 0.125000044089689 
0.7409002400900864 0.2591000839618591 0.37500013226906703 
0.2658390861456451 0.5173701676547551 0.4835401705530258 
0.5173701676547551 0.7341612379063004 0.7335402587324037 
0.4826301563971905 0.2658390861456451 0.23354008237364776 
0.7341612379063004 0.5173701676547551 0.5164601821644862 
0.7341612379063004 0.4826301563971905 0.9835403469117817 
0.016640005392224374 0.7366932387268 0.2467510870333988 
0.4826301563971905 0.7341612379063004 0.2664600939851082 
0.5173701676547551 0.2658390861456451 0.7664602703438643 
0.26330708532514563 0.016640005392224374 0.9967513515715329 
0.9833603186597212 0.26330708532514563 0.7467512633921549 
0.7366932387268 0.016640005392224374 0.0032490011459791967 
0.26330708532514563 0.9833603186597212 0.5032491775047352 
0.9833603186597212 0.7366932387268 0.7532492656841131 
0.7366932387268 0.9833603186597212 0.49675117521277684 
0.016640005392224374 0.26330708532514563 0.2532490893253572 
0.2658390861456451 0.4826301563971905 0.016460005805730246 
