System
1.0
-2.715358 -4.705294 -0.010361
-2.715358 4.705294 -0.010361
1.824394 0.0 -4.882405
Dy Li O Ta
1 4 6 1
direct
0.8339999848927354 0.16599941702125462 2.0608596391216592e-07 
0.500999701807102 0.49899970010688804 2.0608596391216592e-07 
0.020098753397225964 0.9799995694149424 0.4999996963539863 
0.6459992855516115 0.35399903732036536 0.4999996963333777 
0.33899902456876024 0.6609992983032167 0.4999996963333777 
0.9359994302395829 0.6069991505543776 0.23000008350445267 
0.5449991529358998 0.9099994632249575 0.23800005721284645 
0.2449996136945046 0.21699958989150842 0.24099984951096876 
0.7829987329804684 0.7549987091774722 0.7589995431557865 
0.08959885959661519 0.4549991702257157 0.7619993353714745 
0.39299917202796075 0.06439889268279805 0.769999309244737 
0.16799941872146856 0.8319999831925214 2.0608596391216592e-07 
