System
1.0
6.422069 2.67331 0.0
-6.422069 2.67331 0.0
0.0 1.155045 19.756865
K Gd Cu Mo O
2 4 2 8 32
direct
0.029774853095860115 0.970224706655538 0.24999993673086884 
0.9702242664069359 0.029774412847258284 0.7499998101926065 
0.1478010262079861 0.8536889162920245 0.032651991736545316 
0.8521980932948101 0.1463102032107718 0.9673477551869301 
0.1463106434593736 0.8521985335434119 0.4673478817251923 
0.8536884760434225 0.14780058595938428 0.532651865198283 
0.3092098095841886 0.6907897501672093 0.24999993673086884 
0.6907893099186073 0.30920936933558674 0.7499998101926065 
0.5471184694265402 0.4230344887480363 0.5916118502768911 
0.7308818326287317 0.24627890808773478 0.14723696273777176 
0.45288065007625594 0.5769646307547598 0.4083878966465842 
0.7537206516636631 0.26911772712266646 0.35276291072396593 
0.24627846783913282 0.7308813923801297 0.6472368361995093 
0.26911728687406444 0.7537202114150614 0.8527627841857037 
0.576964190506158 0.45288020982765403 0.9083877701083218 
0.4230349289966381 0.5471189096751422 0.09161197681515343 
0.7390536551672163 0.017217767566489732 0.3278069170397437 
0.3063827254659869 0.4924386964946428 0.3282459169286431 
0.2172085968036915 0.25732359055726317 0.4614658832137885 
0.6936163940368093 0.5075604230081535 0.6717538299948322 
0.9373575781756155 0.4155926594212264 0.4329388904333026 
0.7704556409704458 0.6773496554682635 0.3995248988896015 
0.9007858608248778 0.5959429082929062 0.13110896681938994 
0.4924382562460409 0.30638228521738503 0.8282457903903808 
0.06264154132718051 0.5844064600815697 0.5670608564901729 
0.5087644965412864 0.17333154877257634 0.5421288627998768 
0.2609454643355795 0.9827813519363064 0.6721928298837317 
0.7827905226991047 0.7426755289455331 0.5385338637096868 
0.2573231503086612 0.21720815655508957 0.9614657566755263 
0.5075608632567553 0.6936168342854113 0.17175395653309458 
0.06143240360114773 0.469613340042046 0.7134358194460966 
0.6773492152196614 0.7704552007218439 0.8995247723513392 
0.5959424680443043 0.9007854205762761 0.6311088402811277 
0.22954347853235033 0.3226494640345327 0.6004748480338739 
0.4040566514584918 0.09921369892652006 0.36889090664234775 
0.9827817921849085 0.26094590458418165 0.172192956421994 
0.8266671304816179 0.4912341827129079 0.9578707575853362 
0.46961378029064793 0.06143284384974968 0.2134359459843589 
0.17333198902117825 0.5087649367898884 0.04212898933813909 
0.017217327317887717 0.7390532149186145 0.8278067905014813 
0.32264990428313456 0.22954391878095232 0.10047497457213618 
0.5303853392121481 0.9385662756530465 0.7865638009391165 
0.4912346229615096 0.8266675707302198 0.4578708841235986 
0.09921325867791814 0.4040562112098898 0.8688907801040855 
0.5844069003301716 0.06264198157578248 0.06706098302843518 
0.742675969194135 0.7827909629477068 0.0385339902479492 
0.41559221917262457 0.9373571379270138 0.93293876389504 
0.9385667159016485 0.5303857794607503 0.2865639274773788 
