System
1.0
2.85825128 -0.0 0.0
0.0 4.5616138 0.0
0.0 0.0 9.18069394
Mn O
4 8
direct
0.2500001119566168 0.46403108655576875 0.6344351622751194 
0.7499993358694027 0.5359697464834433 0.365565266886523 
0.7499993358694027 0.9640335030770408 0.8655654814673442 
0.2500001119566168 0.035968329963004295 0.1344349476942982 
0.2500001119566168 0.15998394327278703 0.7748728825455762 
0.7499993358694027 0.8400168897664252 0.22512854661649537 
0.7499993358694027 0.6599833597915601 0.7251287611973166 
0.2500001119566168 0.3400174732476521 0.2748716679643259 
0.2500001119566168 0.7844599834853822 0.9692544359666472 
0.7499993358694027 0.2155408495538299 0.030745993194995273 
0.2500001119566168 0.715542266074269 0.4692542213858259 
0.7499993358694027 0.28445856696494304 0.5307462077758164 
