System
1.0
23.650458 0.0 0.0
0.0 3.393815 0.0
0.0 2.991644 9.262002
Li B O
24 16 36
direct
0.11863798996738331 0.629922248697285 0.17884003861800907 
0.381361967750141 0.6299227428302937 0.6788401465860505 
0.8813619254676653 0.3700772663026198 0.8211601773180739 
0.6186379476849077 0.37007677216961093 0.3211600693500324 
0.9425089202967724 0.13974332908953427 0.5413201168905204 
0.5574909528558006 0.13974283495652542 0.041320008922478946 
0.057490995138276386 0.8602561859103705 0.45868009904556245 
0.44250896257924793 0.8602566800433795 0.958680207013604 
0.9581829189713013 0.7513338710909183 0.9896182136942345 
0.5418169541812717 0.7513333769579092 0.489618105726193 
0.04181699646374743 0.24866564390898652 0.010382002241848412 
0.4581829612537769 0.24866613804199547 0.5103821102098899 
0.14336498787634575 0.3422799689033498 0.4787911033882531 
0.35663496984117854 0.3422804630363587 0.9787912113562945 
0.856634927558703 0.6577195460965547 0.5212091125478299 
0.64336494559387 0.657719051963546 0.02120900457978838 
0.20424798272777783 0.6829596352690348 0.6490671401569854 
0.29575197498974654 0.6829591411360258 0.14906703218894407 
0.7957519327072708 0.31703987973086994 0.3509330757790974 
0.7042479404453021 0.3170403738638787 0.8509331837471389 
0.2062639825572949 0.11932201917008435 0.19727804259943857 
0.2937359751602294 0.11932251330309322 0.69727815056748 
0.7937359328777538 0.8806774958298202 0.8027221733366444 
0.7062639402748192 0.8806770016968114 0.30272206536860286 
0.9771889173640598 0.5047429854398843 0.7377171592997191 
0.5228109557885132 0.5047424913068754 0.23771705133167784 
0.022810998070988898 0.4952565295600206 0.26228305663636364 
0.4771889596465354 0.49525702369302943 0.7622831646044052 
0.0864539926890217 0.6218727788729553 0.7033101518700065 
0.41354596502850266 0.6218722847399466 0.203310043901965 
0.913545922746027 0.37812673612694925 0.29669006406607645 
0.586453950406546 0.3781272302599582 0.7966901720341178 
0.1480369874812583 0.3703563786398838 0.9352472019535737 
0.35196297023626605 0.37035588450687484 0.43524709398553224 
0.8519629279537904 0.6296431363600209 0.06475301398250917 
0.6480369451987826 0.6296436304930298 0.5647531219505505 
0.256745978288287 0.40999230226796085 0.9170561980254804 
0.2432539794292373 0.4099918081349521 0.417056090057439 
0.7432539371467617 0.5900072127319437 0.08294401791060246 
0.7567459360058113 0.5900077068649527 0.582944125878644 
0.9737719176530182 0.34127936953873367 0.882691190604837 
0.5262279554995548 0.34127887540572477 0.38269108263679547 
0.026227997782030457 0.658720145461171 0.11730902533124594 
0.4737719599354939 0.65872063959418 0.6173091332992874 
0.9317509212065219 0.5451608350055535 0.6457501394407256 
0.568248951946051 0.5451603408725446 0.14575003147268406 
0.06824899422852665 0.4548386799943512 0.35425007649535734 
0.4317509634889977 0.45483917412736 0.8542501844633988 
0.02891899755446617 0.6706246680009074 0.6637991433381559 
0.47108096016305817 0.6706241738678984 0.16379903537011445 
0.9710809178805825 0.32937484699899744 0.33620107259792703 
0.5289189552719905 0.3293753411320064 0.8362011805659684 
0.12414898950134585 0.7426854936247691 0.5947781284340315 
0.37585096821617847 0.7426849994917601 0.09477802046599007 
0.8758509259337028 0.25731402137513565 0.4052220875020514 
0.6241489472188702 0.2573145155081447 0.9052221954700929 
0.09842099167703292 0.4476201801654548 0.8495981834588641 
0.4015789660404915 0.44761968603244573 0.3495980754908227 
0.9015789237580157 0.5523793348344501 0.15040203247721876 
0.5984209493945573 0.552379828967459 0.6504021404452602 
0.19939198313842524 0.46846716198941873 0.8622841861982293 
0.3006079745790991 0.4684666678564099 0.3622840782301879 
0.8006079322966234 0.5315323530104861 0.1377160297378536 
0.6993919408559496 0.531532847143495 0.6377161377058951 
0.14006098815574836 0.21281276359805176 0.07804401685251565 
0.359938969561776 0.21281325773106075 0.5780441248205571 
0.8599389272793003 0.7871867514018531 0.9219561990835673 
0.6400609458732727 0.787186257268844 0.4219560911155258 
0.29756297483659944 0.5193600374667344 0.8121521753729216 
0.20243698288092496 0.5193595433337255 0.3121520674048801 
0.7024369405984492 0.4806394775331703 0.1878480405631613 
0.7975629325541238 0.4806399716661793 0.6878481485312028 
0.26832297730927857 0.2590376781907994 0.0605330130712589 
0.23167698040824578 0.2590381723238084 0.5605331210393003 
0.7316769381257702 0.7409618368091052 0.939467202864824 
0.7683229350268028 0.7409613426760963 0.43946709489678254 
