System
1.0
2.785573 -2.785669 0.0
2.785573 2.785669 0.0
-2.785573 0.0 12.339816
Bi Nb O Pb
2 2 9 1
direct
0.7000004729580954 0.7000004729580956 0.4009998700143114 
0.29999990345441524 0.2999999034544153 0.5989998058318518 
0.08819997168985812 0.08819997168985813 0.1759999429489247 
0.9120004049380485 0.9120004049380487 0.8239997328972384 
0.0 0.0 0.0 
0.5800001535673912 0.08000033305742421 0.1599999481353861 
0.08000033305742422 0.5800001535673914 0.1599999481353861 
0.16499994651461689 0.1649999465146169 0.3299998930292338 
0.7500000984612389 0.250000277951272 0.49999983792308156 
0.2500002779512719 0.7500000984612392 0.49999983792308156 
0.8350004298978939 0.835000429897894 0.6699997828169293 
0.9200000433550868 0.4200002228451196 0.839999727710777 
0.4200002228451196 0.9200000433550869 0.839999727710777 
0.5000005384894294 0.5000005384894295 0.0 
