System
1.0
3.975311 0.0 0.0
0.0 3.975311 0.0
0.0 0.0 3.90873
Mn O W
1 3 1
direct
0.0 0.0 0.922 
0.5000001257763546 0.5000001257763546 0.116 
0.5000001257763546 0.0 0.625 
0.0 0.5000001257763546 0.625 
0.5000001257763546 0.5000001257763546 0.6110000000000001 
