System
1.0
8.751911 0.0 0.0
0.0 8.751911 0.0
0.0 0.0 8.751911
Cd O Ti
8 32 12
direct
0.9920001133466865 0.9920001133466865 0.008190000935795728 
0.7580000866096658 0.7580000866096658 0.242000027651107 
0.242000027651107 0.25800002947927936 0.25800002947927936 
0.008190000935795728 0.49200005621630016 0.49200005621630016 
0.5080000580444726 0.008190000935795728 0.5080000580444726 
0.7420000847814934 0.242000027651107 0.7420000847814934 
0.25800002947927936 0.7420000847814934 0.7580000866096658 
0.49200005621630016 0.5080000580444726 0.9920001133466865 
0.8570000979214822 0.5990000684422028 0.0836000095522006 
0.0836000095522006 0.3570000407910959 0.09920001133466866 
0.8340000952934844 0.15100001725337667 0.10700001222590268 
0.3860000441046583 0.1140000130257281 0.1140000130257281 
0.6360000726698515 0.36400004159092125 0.1360000155394651 
0.5990000684422028 0.9160001046628679 0.1430000163392905 
0.3930000449044837 0.6660000760976748 0.15100001725337667 
0.15100001725337667 0.8930001020348701 0.16600001896728828 
0.849000097007396 0.3930000449044837 0.33400003816309815 
0.607000069356289 0.16600001896728828 0.34900003987700967 
0.4010000458185699 0.41600004753248143 0.3570000407910959 
0.36400004159092125 0.8640000987213077 0.36400004159092125 
0.6140000701561145 0.6140000701561145 0.3860000441046583 
0.16600001896728828 0.6510000743837632 0.3930000449044837 
0.9160001046628679 0.8570000979214822 0.4010000458185699 
0.1430000163392905 0.09920001133466866 0.41600004753248143 
0.6430000734696769 0.4010000458185699 0.5840000667282912 
0.41600004753248143 0.6430000734696769 0.5990000684422028 
0.6660000760976748 0.849000097007396 0.607000069356289 
0.1140000130257281 0.8860001012350446 0.6140000701561145 
0.8640000987213077 0.6360000726698515 0.6360000726698515 
0.9010001029489563 0.0836000095522006 0.6430000734696769 
0.10700001222590268 0.33400003816309815 0.6510000743837632 
0.34900003987700967 0.10700001222590268 0.6660000760976748 
0.6510000743837632 0.607000069356289 0.8340000952934844 
0.8930001020348701 0.8340000952934844 0.849000097007396 
0.09920001133466866 0.5840000667282912 0.8570000979214822 
0.1360000155394651 0.1360000155394651 0.8640000987213077 
0.8860001012350446 0.3860000441046583 0.8860001012350446 
0.33400003816309815 0.34900003987700967 0.8930001020348701 
0.5840000667282912 0.1430000163392905 0.9010001029489563 
0.3570000407910959 0.9010001029489563 0.9160001046628679 
0.8700000994068723 0.37500004284778976 0.12000001371129272 
0.6200000708416791 0.13000001485390048 0.1250000142825966 
0.37500004284778976 0.8800001005494801 0.13000001485390048 
0.625000071412983 0.3800000434190936 0.3700000422764859 
0.3800000434190936 0.6300000719842869 0.37500004284778976 
0.13000001485390048 0.8750000999781762 0.3800000434190936 
0.6300000719842869 0.625000071412983 0.6200000708416791 
0.8800001005494801 0.8700000994068723 0.625000071412983 
0.1250000142825966 0.12000001371129272 0.6300000719842869 
0.8750000999781762 0.6200000708416791 0.8700000994068723 
0.12000001371129272 0.3700000422764859 0.8750000999781762 
0.3700000422764859 0.1250000142825966 0.8800001005494801 
