Ag Se  O 
 1.0000000000000000
    10.1975490000000004    0.0000000000000000    0.0000000000000000
     0.0000000000000000    5.0065350000000004    0.0000000000000000
     0.0000000000000000    0.4630820000000000    7.4250220000000002
 Ag  Se  O  
   8   4  12
Cartesian
  0.6453620860140000  4.0541234585439998  6.6046832943740004
  4.4534124139860003  3.8225824585440003  2.8921722943740003
  9.5521869139860005  1.4154935414559999  0.8203387056260000
  5.7441365860140001  1.6470345414559999  4.5328497056260000
  2.5088927829209999  1.6495033606190002  4.5959549676040004
  7.6076672829210006  4.0516546393809998  6.5415780323960000
  7.6886562170790000  3.8201136393810002  2.8290670323960003
  2.5898817170790003  1.4179623606190002  0.8834439676040000
  4.0153664991419999  4.0728759921300002  6.2803434833700003
  6.1821825008579996  1.3967410078700000  1.1446785166300000
  9.1141409991420002  1.6282820078700000  4.8571895166300001
  1.0834080008580000  3.8413349921300002  2.5678324833700001
  2.4821038216980003  4.1247839106439992  1.5728943854140001
  7.5808783216980000  1.1132920893560001  2.1396166145860001
  7.7154451783020006  1.3448330893560001  5.8521276145860002
  2.6166706783020000  4.3563249106440001  5.2854053854140002
 10.0065285121320002  3.9542595798190003  1.3857467059040001
  4.9077540121320000  1.2838164201810001  2.3267642940959998
  0.1910204878680000  1.5153574201810001  6.0392752940959999
  3.8942298145710006  2.3305235991080000  6.4327346348979999
  1.2045446854290001  2.0989825991080000  2.7202236348980002
  6.3033191854290003  3.1390934008920004  0.9922873651020001
  8.9930043145709995  3.3706344008920004  4.7047983651020004
  5.2897949878679995  4.1858005798190003  5.0982577059040004
