Sr Dy Sb  O 
 1.0000000000000000
     5.9235980000000001    0.0000000000000000    0.0000000000000000
     0.0000000000000000    5.8682049999999997    0.0000000000000000
     0.0000000000000000    5.8361939999999999    8.3285300000000007
 Sr  Dy  Sb  O  
   4   2   2  12
Cartesian
  2.7661662524519999  2.8811266897420000  2.0864883211900001
  0.1956327475480000  5.7992236897420000  6.2507533211900013
  3.1574317475480003  8.8232723102580000  6.2420416788099997
  5.7279652524519999  5.9051753102579996  2.0777766788100003
  2.9617990000000001  5.8521994999999993  4.1642650000000003
  0.0000000000000000  2.9341024999999998  0.0000000000000000
  0.0000000000000000  2.9180969999999999  4.1642650000000003
  2.9617990000000001  0.0000000000000000  0.0000000000000000
  2.8376344623220002  6.2935539983889992  6.3656287354800005
  1.3404628386160000  1.1570243751500000  0.3475495569000001
  1.7742656909499999 10.1070884259449993  7.9994697797000001
  4.3022618386160003  7.6292776248500003  3.8167154431000005
  4.1493323090500001  1.5973105740550000  0.3290602203000000
  3.0859635376779999  5.4108450016109995  1.9629012645200001
  1.1875333090500000  7.1889914259449998  3.8352047797000002
  1.6213361613840001  4.0751213751500002  4.5118145569000010
  4.5831351613839999 10.5473746248499989  7.9809804431000000
  5.7994334623219999  8.3289420016109990  6.1271662645200005
  0.1241645376780000  3.3754569983889997  2.2013637354800002
  4.7360646909500002  4.5154075740549997  4.4933252203000009
