Ca Co  W  O 
 1.0000000000000000
     5.4686950000000003    0.0001480000000000   -0.0246750000000000
     0.0001390000000000    5.6569170000000000    0.0000060000000000
    -0.0102180000000000    0.0000010000000000    7.8298150000000000
 Ca  Co  W   O  
   4   2   2  12
Cartesian
  5.3902815661840009  0.3142465172659999  1.9578399773300001
  2.8078025869020000  3.1426690588530000  1.9199879245709999
  0.0683398921540000  5.3428138259660001  5.8473138278039993
  2.6508024652120006  2.5143856270180001  5.8851659545819999
  2.7343420313050002  0.0000739998520000 -0.0123374753250000
 -0.0050395001390000  2.8284533430830003  3.9149104999939999
  2.7292221248470003  0.0000858133870000  3.9025465845920002
  0.0001132496990000  2.8284641581010002  0.0000028026060000
  3.7559220504130004  1.6070399989759998  3.4701365268509998
  4.4420614936430010  4.4355165674029999  0.4077574962760000
  1.7027103251569999  4.0500316583879998  4.3350328885750002
  1.0165600163410000  1.2215664034920000  7.3973571598069991
  1.1464196308240002  1.0926991817460001  4.2682381483859997
  1.5725654858580000  3.9212206463179999  7.4641450552999995
  4.3122072858520006  4.5643555047179989  3.5369234618820000
  3.8860177427050004  1.7358396958730000  0.3409697734840000
  0.5253235889100000  2.6393849133880001  1.8738176905740000
  2.2041907006890002  5.4678832164809998  2.0287449032280001
  3.2544252585779998  0.1891884404400000  5.7764324160379994
  4.9332924110900001  3.0176810866119999  5.9313283094260001
