Na Tb Mn  W  O 
 1.0000000000000000
     5.6738489999999997    0.0000000000000000    0.0000000000000000
     0.0000000000000000    5.4831099999999999    0.0000000000000000
     0.0000000000000000    0.0049920000000000    8.0079919999999998
 Na  Tb  Mn  W   O  
   2   2   2   2  12
Cartesian
  1.7358119722679999  1.3821306882460000  8.0004484715360000
  4.5727364722679997  4.1059713117540007  0.0075435284640000
  1.1883366084089999  1.4572069779340000  3.9920400679439996
  4.0252611084089995  4.0308950220659998  4.0159519320559998
  1.5061288908989998  4.1271221160420000  6.0717876622719995
  4.3430533908989997  1.3609798839579998  1.9362043377280000
  1.5616304818169999  4.1777623756099995  1.9525486493999997
  4.3985549818169991  1.3103396243900001  6.0554433506000001
  0.4524837839010000  0.4933630198840000  6.2686321136239993
  2.6486832117269996  2.5766639419119999  2.5636064869520001
  5.4856077117269999  2.9114380580879997  5.4443855130479992
  0.6133487507490000  0.3324965103540000  1.8042966935040001
  5.6729638795559998  3.1086372240900002  2.5755303870400001
  4.1857005365819999  1.8146184635620000  7.8453176505119995
  2.8360393795559999  2.3794647759099998  5.4324616129600001
  1.3487760365820001  3.6734835364380003  0.1626743494880000
  3.2894082839009995  4.9947389801159998  1.7393598863760000
  3.4502732507489999  5.1556054896459997  6.2036953064959999
  4.6304792335409992  0.7525597782699999  4.0595714644799994
  1.7935547335409998  4.7355422217300003  3.9484205355199999
