Ga Bi  O 
 1.0000000000000000
     5.9194111700000001    0.0000000000000000    0.0000000000000000
     0.0000000000000000    7.9466815899999999    0.0000000000000000
     0.0000000000000000    0.0000000000000000    8.3301884499999996
 Ga  Bi  O  
   8   4  18
Cartesian
  2.9597055850000000  1.1824271229185772  5.5319985130434173
  2.9597055850000000  6.7642544670814226  2.7981899369565819
  2.9597055850000000  5.1557679179185767  6.9632841619565822
  2.9597055850000000  2.7909136720814227  1.3669042880434179
  1.5249299372771139  3.9733407949999999  4.1650942249999998
  4.3944812327228862  0.0000000000000000  0.0000000000000000
  4.3944812327228862  3.9733407949999999  4.1650942249999998
  1.5249299372771139  0.0000000000000000  0.0000000000000000
  0.0000000000000000  2.5951724415592290  6.9106253754812137
  0.0000000000000000  5.3515091484407709  1.4195630745187859
  0.0000000000000000  6.5685132365592285  5.5846572995187858
  0.0000000000000000  1.3781683534407709  2.7455311504812139
  2.9597055850000000  3.9733407949999999  0.0000000000000000
  2.9597055850000000  0.0000000000000000  4.1650942249999998
  1.4344491921968607  6.9240596114513977  1.7283849854540247
  1.4344491921968607  1.0226219785486019  6.6018034645459753
  4.4849619778031391  2.9507188164513982  2.4367092395459746
  4.4849619778031391  4.9959627735486016  5.8934792104540241
  4.4849619778031391  1.0226219785486019  6.6018034645459753
  4.4849619778031391  6.9240596114513977  1.7283849854540247
  1.4344491921968607  4.9959627735486016  5.8934792104540241
  1.4344491921968607  2.9507188164513982  2.4367092395459746
  2.9597055850000000  2.9233614114760322  4.9368521144217397
  2.9597055850000000  5.0233201785239672  3.3933363355782604
  0.0000000000000000  1.1862486026283923  0.5595281788471684
  0.0000000000000000  6.7604329873716074  7.7706602711528312
  0.0000000000000000  5.1595893976283929  3.6055660461528314
  0.0000000000000000  2.7870921923716079  4.7246224038471683
  2.9597055850000000  1.0499793835239677  0.7717578894217394
  2.9597055850000000  6.8967022064760322  7.5584305605782598
