Ba Nd Mn  O 
 1.0000000000000000
     3.9398230000000001    0.0000000000000000    0.0000000000000000
     0.0000000000000000    3.9398230000000001    0.0000000000000000
     0.0000000000000000    0.0000000000000000    7.9249640000000001
 Ba  Nd  Mn  O  
   1   1   2   6
Cartesian
  0.0000000000000000  0.0000000000000000  3.9624740750360004
  0.0000000000000000  0.0000000000000000  0.0000000000000000
  1.9699154398230001  1.9699154398230001  5.9711037506200002
  1.9699154398230001  1.9699154398230001  1.9538602493799999
  1.9699154398230001  1.9699154398230001  0.0000000000000000
  0.0000000000000000  1.9699154398230001  6.1449061361039998
  1.9699154398230001  0.0000000000000000  6.1449061361039998
  0.0000000000000000  1.9699154398230001  1.7800578638960001
  1.9699154398230001  1.9699154398230001  3.9624740750360004
  1.9699154398230001  0.0000000000000000  1.7800578638960001
