 K  I  O 
 1.0000000000000000
     7.6722581900000000   -0.0356227200000000   -0.0443430900000000
    -2.5190740599999999    7.2661578699999998   -0.0604204100000000
    -2.4927030399999999   -3.5275551400000000    6.3513967600000001
 K   I   O  
   4   4  12
Cartesian
  1.6507839419229873  1.7781426466731274  3.0692758263648696
 -1.2200987384797002  3.7673207491980740 -0.0254433126985446
 -1.1727192994133939 -1.7995560102571009  3.2562193050067902
  1.3238619474148237  7.1399764134863188  0.0698678505820922
 -2.3227007890352476  1.8784300740578810  3.1133303911577261
  2.6621867793149314  3.5918791596390007 -0.0676920869086162
  0.1469400909554126  5.3742537716750114  3.1656471676345705
 -0.0210016756480896  0.0263275284823855  0.0368180618814673
  4.4970946173513324  2.8371323880847164  1.8078500151623538
  4.3174451340984650  0.3456011680015970  2.9732574816918085
 -0.8893137297197499  1.3141034197769874  2.1576178112872584
  1.9606940071673784  1.9230932952943116  0.0853350032061624
  1.3572206229400097 -0.2340624818619662  4.9441180310771431
 -1.1650771122560242  0.8551383520669277  5.3396477553544530
 -0.9839981141964755  4.0622921930800242  3.7052252898643818
  1.3409996274592826  4.4071799928647701  2.1960305718267978
  4.1806967369628367 -2.3917930060067358  5.3304259597163126
  3.5408869269265635  2.8630853348588023  4.9598847101758858
  3.8761036060564837  5.9944960816700483  0.2920906508328511
 -0.8352853753318367  6.0526001648276377  1.7902160999528227
