Mg Fe  O 
 1.0000000000000000
     3.0201069999999999    5.2284230000000003    0.0000000000000000
    -3.0201069999999999    5.2284230000000003    0.0000000000000000
     0.0000000000000000    3.5222190000000002   19.7015810000000009
 Mg  Fe  O  
   8  16  32
Cartesian
  0.0000000000000002 12.2649570214760022 19.1007615858240030
 -0.0000000000000001  7.0156287664960004 17.2404595014800002
 -0.0000000000000000  8.7698645039669998 14.1535960888190004
 -0.0000000000000000  3.5136574615040002 12.3055286862760020
 -0.0000000000000002 10.4709691695589999  7.3915406516750002
 -0.0000000000000001 12.2177766024399990  9.8576860533499993
 -0.0000000000000001  6.9815921153770004  2.4757597732029999
 -0.0000000000000002  8.7225514508700002  4.9348126057180002
 -1.4758658887600000  9.5885486990280011 17.2436905607640014
 -0.0000000000000000  5.2481149401360003 14.7170416038380019
  1.4758658887600000  9.5885486990280011 17.2436905607640014
 -0.0000000000000001  5.2823256891890003  9.2047559574290005
 -1.4988036014249999  6.1087623449680004 12.3129167791510010
 -0.0000000000000002 12.1871446805810013 15.3826201147610000
 -0.0000000000000000  1.7890639096209999  4.3030420077910003
  1.4988036014249999  6.1087623449680004 12.3129167791510010
  1.5100504798930001  7.8558124148389998  7.3940033493000010
 -0.0000000000000000  8.6944388046910017 10.4968250425710004
 -1.5100504798930001  7.8558124148390007  7.3940033493000010
 -1.5311247865389999  4.3481535077860007  2.4745776783430000
  1.5311247865389999  4.3481535077860007  2.4745776783430000
  0.0000000000000000  5.2013534879669994  5.5662679783489999
  0.0000000000000000  8.7406200707570001 19.6467515000770021
 -0.0000000000000000  1.7034019334630000  0.5998934398690000
  1.4031175513440000  7.9786016630150005 18.4440881895129998
  0.0000000000000001  8.7865615419009995 16.1502725168449999
 -1.4031175513440000  7.9786016630150014 18.4440881895129998
  0.0000000000000002 10.3704193427210001 18.4284845373610011
  0.0000000000000000  3.6052816594069999 16.0453024932769992
 -1.6253642053669999  9.7201763306760007 13.5076206509910008
  1.4335330489409999  6.0647653959280001 16.0361609596930030
  0.0000000000000000  5.2750336196090002 11.1520602234690003
  1.6253642053670001  9.7201763306760007 13.5076206509910008
 -0.0000000000000000  5.2415967146150004 18.3753690749850023
  0.0000000000000000  6.8641115296140001 13.4933370047660013
 -1.4335330489409999  6.0647653959280010 16.0361609596930030
 -1.5697821561390000  6.1853485339759997  8.5683554879670005
 -0.0000000000000000 10.5545966774890001 11.1459527333589996
 -1.5633402679080002  7.7997291949790011 11.1360625396970008
 -0.0000000000000000  1.7802239741430002  6.2577146651250004
  1.5697821561390000  6.1853485339759997  8.5683554879670005
  0.0000000000000000 12.2047686902050003 13.4543869791289996
 -0.0000000000000000  3.4146956737520004  8.5580515611039996
  1.5633402679080000  7.7997291949790002 11.1360625396970008
  0.0000000000000001  7.0660638554170010  6.2099186296190005
  1.4595573109600000  7.9102290429890001  3.6498163881550001
 -1.5661127261339998  4.3022579740640001  6.1993388806220002
 -0.0000000000000001  8.7587463953259999  1.4079143814220001
 -1.4595573109600000  7.9102290429890001  3.6498163881550001
  0.0000000000000001  8.7034374655729998  8.5168949583949995
 -0.0000000000000001 10.3908547061069996  3.6406354514090005
  1.5661127261339998  4.3022579740639992  6.1993388806220002
  0.0000000000000000  3.5839125208160003  1.2603889428940001
  1.4306941483609998  6.0343085992970007  1.2508927808520003
 -0.0000000000000001  5.2061862528670000  3.5860226688770003
 -1.4306941483609998  6.0343085992969998  1.2508927808520003
