Sr Zr Ti  O 
 1.0000000000000000
    -2.8599579999999998    2.8599579999999998    4.0861250000000000
     2.8599579999999998   -2.8599579999999998    4.0861250000000000
     2.8599579999999998    2.8599579999999998   -4.0861250000000000
 Sr  Zr  Ti  O  
   2   1   1   6
Cartesian
  2.8599579999999998  0.0000000000000000  2.0430625000000000
 -0.0000000000000002  2.8599579999999998  2.0430625000000000
  0.0000000000000000  0.0000000000000000  4.0861250000000000
  0.0000000000000000  0.0000000000000000  0.0000000000000000
  0.0000000000000001 -0.0000000000000001  6.1924243705000004
 -0.0000000000000000  0.0000000000000000  1.9798256295000001
  1.6856192057880000 -1.2690034040120000  4.0861250000000000
  1.1743387942120000  4.1289614040119993 -0.0000000000000002
  1.2690034040119997  1.6856192057880000  4.0861250000000009
  1.5909545959879998  1.1743387942119998 -0.0000000000000001
