Ca Fe  O Sb 
 1.0000000000000000
    -5.4865180000000002    0.0000000000000000    0.0094490000000000
     0.0000000000000000   -5.6233769999999996    0.0000000000000000
    -0.0093890000000000    0.0000000000000000    7.8320879999999997
 Ca  Fe  O   Sb 
   4   2  12   2
Cartesian
 -5.4263386249689995 -0.2827827591989998  5.8785668420050010
 -2.8175218750310003 -3.0944712591989996  5.8837386579950000
 -2.6783851249690005 -2.5289057408010001  1.9577983420049998
 -0.0695683750310000 -5.3405942408009999  1.9629701579949999
 -5.4912125000000005 -2.8116884999999998  3.9254929999999999
 -2.7432590000000001  0.0000000000000000  0.0047245000000000
 -3.2520423917230010 -0.1708156997519998  1.9799329009020004
 -4.9824291082770005 -2.9825041997519994  1.9502845990980002
 -2.2438646082769993 -5.4525613002480000  5.8616040990979998
 -0.5134778917229996 -2.6408728002480002  5.8912524009019993
 -1.0948013262289999 -1.1639828052299999  0.3859781251480001
 -1.6531521737709995 -3.9756713052299997  3.5347903748519998
 -4.4011056737710001 -4.4593941947699998  7.4555588748519996
 -3.8427548262290006 -1.6477056947700000  4.3067466251479996
 -3.8751163599090006 -1.6736744497559999  7.4664481048520006
 -4.3687441400909997 -4.4853629497559995  4.2958573951479995
 -1.6207906400909999 -3.9497025502439995  0.3750888951480000
 -1.1271628599090004 -1.1380140502440006  3.5456796048519998
  0.0000000000000000 -2.8116884999999998  0.0000000000000000
 -2.7479534999999999  0.0000000000000000  3.9207684999999999
