Fe  P  O 
 1.0000000000000000
     6.4838167699999998   -0.0000000000000000    0.0000000000000000
    -0.0000000000000000    7.3802131199999996    0.0000000000000000
     0.0000000000000000    0.0000000000000000    7.4213161200000002
 Fe  P   O  
   8   4  20
Cartesian
  4.8628625774999996  6.3213653088242499  5.3608080336881692
  1.6209541924999999  1.0588478111757504  2.0605080863118315
  4.8628625774999996  2.6312587488242496  5.7711661463118311
  1.6209541924999999  4.7489543711757500  1.6501499736881688
  0.0000000000000000  3.6901065599999998  3.7106580600000001
  3.2419083849999999  3.6901065599999998  3.7106580600000001
  3.2419083849999999  0.0000000000000000  0.0000000000000000
  0.0000000000000000  0.0000000000000000  0.0000000000000000
  1.6209541924999999  6.4577203551782203  4.7245640569409737
  4.8628625774999996  0.9224927648217791  2.6967520630590265
  1.6209541924999999  2.7676137951782209  6.4074101230590266
  4.8628625774999996  4.6125993248217796  1.0139059969409736
  3.6326007495541757  4.6410887187161274  1.9325374343860322
  0.3906923645541758  2.7391244012838718  5.4887786856139682
  6.0931244054458240  0.9509821587161279  1.7781206256139679
  2.8512160204458241  6.4292309612838716  5.6431954943860321
  2.8512160204458241  2.7391244012838718  5.4887786856139682
  6.0931244054458240  4.6410887187161274  1.9325374343860322
  0.3906923645541758  6.4292309612838716  5.6431954943860321
  3.6326007495541757  0.9509821587161279  1.7781206256139679
  1.6209541924999999  3.9810051879421824  7.2936353446818485
  4.8628625774999996  3.3992079320578172  0.1276807753181520
  1.6209541924999999  0.2908986279421824  3.8383388353181522
  4.8628625774999996  7.0893144920578175  3.5829772846818480
  1.6209541924999999  6.6090707399558015  1.0067887321424100
  4.8628625774999996  0.7711423800441983  6.4145273878575901
  1.6209541924999999  2.9189641799558013  2.7038693278575900
  4.8628625774999996  4.4612489400441984  4.7174467921424101
  1.6209541924999999  1.4639167862395774  7.2500287301449848
  4.8628625774999996  5.9162963337604220  0.1712873898550152
  1.6209541924999999  5.1540233462395770  3.8819454498550150
  4.8628625774999996  2.2261897737604222  3.5393706701449847
