Nd Mn Co  O 
 1.0000000000000000
     5.6362569999999996    0.0000000000000000    0.0000000000000000
     0.0000000000000000    5.4519399999999996    0.0000000000000000
     0.0000000000000000    5.4512419999999997    7.7617820000000002
 Nd  Mn  Co  O  
   4   2   2  12
Cartesian
  3.1384651665949996  8.1033983660479993  5.8197375729080001
  0.3203366665950000  5.5254046339520002  5.8229354270920002
  2.4977918334049996  2.7997836339519999  1.9420444270919999
  5.3159203334049998  5.3777773660479991  1.9388465729080000
  2.8181284999999998  5.4515909999999996  3.8808910000000001
  0.0000000000000000  2.7259699999999998  0.0000000000000000
  2.8181284999999998  0.0000000000000000  0.0000000000000000
  0.0000000000000000  2.7256209999999998  3.8808910000000001
  2.6937813980659997  4.9804011434739994  5.7657388555339999
  1.2112879918699999  4.3788509152519994  3.5172980839920003
  4.0294164918700002  3.7987100847479995  0.3635929160080000
  1.1206513430529998  4.2861532666939999  0.3459969562140000
  2.9424756019339999  5.9227808565259989  1.9960431444659998
  4.4249690081299997  6.5243310847479989  4.2444839160079999
  1.6974771569470000  7.0117742666939993  4.2268879562140000
  0.1243471019340000  2.2547801434740000  1.8848478555340000
  5.5119098980659995  8.6484018565259984  5.8769341444660004
  4.5156056569469998  6.6170287333059994  7.4157850437860002
  3.9387798430530001  3.8914077333060000  3.5348940437860001
  1.6068405081299999  7.1044719152519997  7.3981890839920004
