Li Bi  O 
 1.0000000000000000
     2.1369319999999998    5.0002069999999996    0.0000000000000000
    -2.1369319999999998    5.0002069999999996    0.0000000000000000
     0.0000000000000000    2.0439579999999999    5.6985429999999999
 Li  Bi  O  
   5   1   5
Cartesian
 -0.0000000000000001  8.3421252220620001  3.6921258995009998
 -0.0000000000000000 10.8794887914919993  2.7497407479620000
 -0.0000000000000000  4.8002779975719996  4.8197193970830003
 -0.0000000000000001  7.0801232817019999  0.7029665659370000
 -0.0000000000000000  3.4833168398939995  1.8727805686060000
 -0.0000000000000001 11.9576618884239991  5.6057365287019998
 -0.0000000000000001 10.1020930139719987  4.5884611250570000
 -0.0000000000000001  6.9634384881400004  5.5625301756759997
 -0.0000000000000000  2.9652461664400001  3.7588273453159999
  0.0000000000000000  8.9268152953079980  1.7739507373570000
 -0.0000000000000000  1.7603300029940001  0.9449380988029999
