Dy Mn Ni  O 
 1.0000000000000000
     5.5880950000000000    0.0000000000000000    0.0000000000000000
     0.0000000000000000    5.2637609999999997    0.0000000000000000
     0.0000000000000000    5.2078530000000001    7.5523740000000004
 Dy  Mn  Ni  O  
   4   2   2  12
Cartesian
  0.4040527970700000  5.3203929154259999  5.6594394282660003
  2.3899947029300002  2.7164664154259999  1.8832524282660001
  5.1840422029299997  5.1512210845739999  1.8929345717340000
  3.1981002970699999  7.7551475845739999  5.6691215717340002
  0.0000000000000000  2.6039265000000000  3.7761870000000002
  2.7940475000000000  0.0000000000000000  0.0000000000000000
  2.7940475000000000  5.2358069999999994  3.7761870000000002
  0.0000000000000000  2.6318804999999998  0.0000000000000000
  3.9393275702499997  3.5650626633929998  3.3510110009220004
  4.4428149297499999  6.1689891633929994  7.1271980009220002
  1.6487674297499999  6.9065513366069995  4.2013629990780004
  1.1452800702499999  4.3026248366069995  0.4251759990780000
  1.0442361364600001  4.1835999959189998  3.3747405600300002
  1.7498113635400001  6.7875264959190007  7.1509275600300004
  4.5438588635399997  6.2880140040810000  4.1776334399700001
  3.8382836364600004  3.6840875040809999  0.4014464399700000
  2.5948598537250001  4.6531250587709998  5.7187180117920002
  0.1991876462750000  2.0491985587709998  1.9425310117920001
  2.9932351462750004  5.8184889412290000  1.8336559882080001
  5.3889073537250001  8.4224154412290009  5.6098429882080003
