Tm Si  O 
 1.0000000000000000
     6.5057130599999997   -0.0277596900000000   -0.1690105100000000
    -0.2627463000000000    6.5093132400000000   -0.4783045800000000
    -0.0779806900000000    0.0298466000000000   11.8798971800000004
 Tm  Si  O  
   8   8  28
Cartesian
  5.2695355114073994  2.1020197631295030  1.0255599058250247
  0.8954505585926011  4.4093803868704962 10.2070221841749760
  5.4056959171917187  4.6292155178970154  7.0549967617976428
  0.7592901528082806  1.8821846321029851  4.1775853282023583
  3.8440878854756533  3.8101570754242498  3.8227550070106067
  2.3208981845243466  2.7012430745757499  7.4098270829893949
  3.3389484280322699  5.3709930089161793  0.8604893363121222
  2.8260376419677296  1.1404071410838206 10.3720927536878769
  4.1252744571517788  0.7814749572127434  4.2882139500604746
  2.0397116128482211  5.7299251927872570  6.9443681399395256
  0.5607829321118483  5.0723757307925288  4.4377877432361839
  5.6041966321750918  1.4390244469671609  6.7947945157743268
 -0.1442029673259040  5.4430263006053776  1.6694526274597161
  6.3091890373259041  1.0683738493946227  9.5631294625402852
  4.0362020800452294  4.2311565151498112 10.1037105847793942
  2.1287839899547696  2.2802436348501884  1.1288715052206060
  3.0725345965943309  3.1555013798650435  9.3618278196997338
  3.0924514734056694  3.3558987701349565  1.8707542703002669
  2.9653781745114869  5.4452345313810460 10.4210964915615776
  3.1996078954885130  1.0661656186189543  0.8114855984384228
  5.2993270008142828  4.6273482778428221  9.2072363005860236
  0.8656590691857162  1.8840518721571788  2.0253457894139770
  4.5969657335717073  3.7698038127245916 -0.3070863753509584
  1.5680138307152320  2.7415963650350985 11.5396686343614689
  3.4772638164445122  5.9025713464289771  3.1029393757764123
  2.6877222535554872  0.6088288035710240  8.1296427142235874
  2.8927942431436278  1.7558407809834613  4.7049093471079519
  3.2721918268563721  4.7555593690165390  6.5276727428920491
  5.0517359326145765  1.8149790488018993  3.4074112324884949
  1.1132501373854231  4.6964211011981014  7.8251708575115062
  5.0273098905020159  0.4482579882519893  5.6253092150407387
  1.1376761794979839  6.0631421617480106  5.6072728749592615
  0.8966264674261588  0.1059199835682704 10.3829952303548385
  5.2683596025738400  6.4054801664317287  0.8495868596451616
  0.5669104432047384  2.4072170498455074  9.1404088848792231
  5.5980756267952616  4.1041831001544926  2.0921732051207780
  5.0642424421154910  1.3366957454957207 10.5435231595188323
  1.1007436278845082  5.1747044045042800  0.6890589304811681
  5.7857093095731917  0.3943819076857605  8.0632270715503864
  0.3792764976805079  6.1170247516274801  3.1693545401450338
  0.4500452083279169  2.1378294924136796  6.3724106682911144
  5.7149408616720825  4.3735706575863205  4.8601714217088867
  4.5565827118695479  2.6124647935425709  7.0697434429843442
  1.6084033581304527  3.8989353564574292  4.1628386470156569
