Na  N  O 
 1.0000000000000000
     3.1670151799999999   -0.0000000100000000    1.4390492100000001
     1.5467325100000000    3.8269080899999999    0.8004615700000000
    -0.0000392700000000   -0.0108249900000000    4.2045472699999999
 Na  N   O  
   1   1   2
Cartesian
  2.4974184183493322  1.5769933205018429  2.9126792099893923
  1.7495491860267895  3.3383291856168471  4.5585690946756907
  4.4063420569965954  3.0675098337718634  2.9160392359616534
  3.4730113339580626  0.7518002787492770  4.9700835421398599
