Ca Zn Ge  O 
 1.0000000000000000
     4.5557059999999998    5.1590189999999998    0.0000000000000000
    -4.5557059999999998    5.1590189999999998    0.0000000000000000
     0.0000000000000000    1.4738789999999999    5.3123659999999999
 Ca  Zn  Ge  O  
   2   2   4  12
Cartesian
  1.7937910146759999  6.2644282499999999  3.9842744999999997
 -1.7937910146759999  5.5274887499999998  1.3280915000000000
 -3.7045998936679996  6.2644282499999999  3.9842744999999997
  3.7045998936679996  5.5274887499999998  1.3280915000000000
 -0.8940026340280000  4.0748711643449997  4.1141884105299997
 -0.8940026340279995  8.4539853356550001  3.8543605894699997
  0.8940026340279995  7.7170458356550000  1.1981775894700000
  0.8940026340279998  3.3379316643450001  1.4580054105300000
  0.2722991033260002  4.4601255353039999  2.7429817480740000
  0.2722991033260002  8.0687309646959999  5.2255672519259999
 -0.2722991033259999  7.3317914646959998  2.5693842519260000
 -0.2722991033260002  3.7231860353039998  0.0867987480740000
  2.3741378463099996  3.9813847985789996  0.8224498793880001
  2.3741378463100000  7.0735927014210001  1.8337331206120000
 -2.3741378463099996  7.8105322014209992  4.4899161206119995
 -2.3741378463099996  4.7183242985789997  3.4786328793879999
 -0.8443499943340000  2.3951987436839999  4.5992393005260004
 -0.8443499943340003 10.1336577563159995  3.3693096994739999
  0.8443499943339997  9.3967182563159994  0.7131266994740000
  0.8443499943340000  1.6582592436840000  1.9430563005260000
