Mn In Ni  O 
 1.0000000000000000
     5.2088690000000000   -0.0008800000000000   -0.0198770000000000
    -0.0009150000000000    5.4161010000000003   -0.0012450000000000
    -0.0135050000000000   -0.0017570000000000    7.7057149999999996
 Mn  In  Ni  O  
   2   4   2  12
Cartesian
 -0.0122480943290000  2.7056596022140003  7.7047547603869999
  2.5970275233100000  5.4145495689279999  3.8416499425400001
  2.7208992622980004  3.0404149633890003  1.8893329624260000
  0.1083277949830000  5.0815707833859998  5.7503998990609997
  2.4735382183340002  2.3735742683930003  5.7958378851879999
  5.0851939551500003  0.3319150288730000  1.9342351626400001
  5.2007821632590003  2.7045052465280000  3.8305586327529997
  2.5911868786799999  5.4137142841469998  7.6943267226599996
  0.6537484069480000  2.3877000413139999  1.8329678017160000
  3.2513373258480001  0.3189042645390000  5.6761402768859996
  4.5406430126529997  3.0264788726139997  5.8517177211709992
  1.9424855302370001  5.0952746416460002  2.0090020497789998
  1.5359973860359999  3.7404213372740003  7.2197242383519997
  4.1461998230289998  4.3814220869830001  3.3575009630329999
  3.6585298246940003  1.6739417521610001  0.4647372596679999
  1.0479975144439999  1.0323775479499999  4.3279944825280001
  4.2427599050900007  4.2968631608750005  0.5459719815399999
  1.6307830363169999  3.8244116408250002  4.4087256884489996
  0.9519700698460000  1.1164815952150000  7.1388049096519994
  3.5629052282089999  1.5887978940110001  3.2760320921229997
