 Y Fe  O 
 1.0000000000000000
     5.2877063800000004   -0.0000068000000000    0.0007391100000000
    -0.0000084500000000    5.6197518300000002   -0.0000300600000000
     0.0010284400000000   -0.0000288800000000    7.6241401900000003
 Y   Fe  O  
   4   4  12
Cartesian
  2.7439536781006844  2.4095924407875717  1.9066638234451601
  0.1006251374540668  0.4002656028436502  5.7184144528547121
  5.1881012325459324  5.2194505471563488  1.9064347871452885
  2.5447726918993161  3.2101237092124286  5.7181854165548396
  2.6438531900000002 -0.0000034000000000  0.0003695550000000
 -0.0000042250000000  2.8098759150000001 -0.0000150300000000
  0.0005099950000000  2.8098614749999999  3.8120550650000000
  2.6443674100000001 -0.0000178400000000  3.8124396500000000
  1.0071065595565183  4.5326464293038002  7.1755856151877415
  3.6503029044174409  3.8974789733356503  0.4496654470237298
  1.6381861524174708  1.7227238145172346  4.2611001970650531
  4.2816286445277854  1.0876590407009297  3.3633792806614453
  4.2816198104434813  1.0870697206961997  0.4492636248122585
  1.6384234655825591  1.7222371766643498  7.1751837929762710
  3.6505402175825301  3.8969923354827651  3.3637490429349470
  1.0070977254722140  4.5320571092990702  4.2614699593385552
  3.2541817609346122  5.3847280263327670  5.7187287166094602
  0.6098228041861198  3.0448648011186576  1.9064304312679830
  4.6789035658138811  2.5748513488813427  5.7184188087320171
  2.0345446090653887  0.2349881236672325  1.9061205233905403
