Fe  O  P 
 1.0000000000000000
    -0.0114487100000000    0.0062750299999998   -4.4829021000000004
     1.3775476700000000   -4.9571248899999993    0.8184195299999999
    -5.4629532799999998   -0.0299681500000000    0.7912263600000000
 Fe  O   P  
   2   7   2
Cartesian
 -3.4937380815785875 -1.2642598910573482 -1.5282314954849439
 -0.8129382503842802 -3.0338343917920754 -1.7040392539484521
 -1.5987740579126286 -1.5568776187357816 -0.5339189405414208
 -0.6135308589316725 -4.9148661794581763 -2.2826301274324701
 -0.0269408014454137 -1.5324401693997256 -3.0326335643242759
 -4.1533412347841470 -4.6688066924866680  1.4150885905733270
 -4.2727396671116367 -2.7747191793081760 -0.2054009467427761
 -2.2810266816976625 -4.3171962856132717 -0.1652723124867859
 -2.7009139802757898 -2.7331467545533989 -2.7119220541212834
 -0.9675198846684819 -0.7245054936734513 -3.9144735353147659
 -3.3137289194530712 -3.5735801240775240  0.6644664624445981
