Ca Mg  W  O 
 1.0000000000000000
     5.6373239999999996    0.0000000000000000    0.0000000000000000
     0.0000000000000000    5.4748690000000000    0.0000000000000000
     0.0000000000000000    5.4505249999999998    7.8186410000000004
 Ca  Mg  W   O  
   4   2   2  12
Cartesian
  5.3508070076999994  5.5346733927280001  1.9352074711920002
  2.5321450076999996  2.6654581072719998  1.9741130288080000
  3.1051789922999999  8.2599358927279987  5.8445279711920000
  0.2865169923000000  5.3907206072719998  5.8834335288080011
  2.8186619999999998  0.0000000000000000  0.0000000000000000
  0.0000000000000000  2.7252624999999999  3.9093205000000002
  0.0000000000000000  2.7374345000000000  0.0000000000000000
  2.8186619999999998  5.4626970000000004  3.9093205000000002
  3.9196595638199994  7.0388630174789997  3.5574816550000001
  1.1009975638200000  1.1612684825210000  0.3518388450000000
  1.7176644361799998  3.8865309825210002  4.2611593450000003
  4.5363264361799995  9.7641255174790000  7.4668021549999999
  4.4233431885719998  4.4116418977990000  4.3122150707299998
  1.6046811885719998  9.2390146022010011  7.4157464292700004
  1.2139808114280000  6.5137521022009999  3.5064259292700002
  4.0326428114279995  1.6863793977989998  0.4028945707300000
  2.9910682798920001  4.9639000635230000  2.0272250571210000
  0.1724062798920000  3.2362314364770000  1.8820954428790000
  2.6462557201079995  5.9614939364769999  5.7914159428790004
  5.4649177201079997  7.6891625635229994  5.9365455571209997
