 K Eu Ge  O 
 1.0000000000000000
    -4.3119110000000003   -5.5438380000000000    0.9857310000000000
    -4.3119110000000003    5.5438380000000000    0.9857310000000000
     0.0020660000000000    0.0000000000000000  -19.6201420000000013
 K   Eu  Ge  O  
   6   6  12  36
Cartesian
 -7.0652878219530004  1.1663181822779998 -6.7216583740190012
 -1.5575011780470001  1.1663181822780000 -1.1169506259810003
 -1.5564681780470000 -1.1663181822779998 -10.9270216259810002
 -7.0642548219530008 -1.1663181822779991 -16.5317293740190010
 -4.3113945000000005  1.1782873285199997 -3.9193045000000004
 -4.3103615000000000 -1.1782873285199997 -13.7293755000000015
 -4.3113945000000005 -3.9490088595119999 -3.9193045000000004
 -4.3103615000000000  3.9490088595119999 -13.7293755000000015
 -2.7886353548809999  2.2974274494180000 -7.5761371372070005
 -5.8341536451190006  2.2974274494179996 -0.2624718627930000
 -5.8331206451190001 -2.2974274494179996 -10.0725428627930018
 -2.7876023548809998 -2.2974274494179996 -17.3862081372069994
 -6.6109108529960006 -1.4622981492600002 -3.2289914034880001
 -2.0118781470040004 -1.4622981492600002 -4.6096175965119999
 -2.0108451470040003  1.4622981492600000 -14.4196885965120014
 -6.6098778529960009  1.4622981492600005 -13.0390624034879998
 -4.0945080979010005 -0.9804998201940002 -7.0141335598630006
 -4.5282809020989996 -0.9804998201940001 -0.8244754401369999
 -4.5272479020990000  0.9804998201940002 -10.6345464401370009
 -4.0934750979010008  0.9804998201940001 -16.8242045598630021
 -7.6124510917650010 -0.8878733748899997 -0.3818859445190000
 -1.0103379082349999 -0.8878733748900001 -7.4567230554810005
 -1.0093049082350001  0.8878733748900001 -17.2667940554810002
 -7.6114180917650014  0.8878733748899997 -10.1919569445190010
 -6.9555302764849998  0.1310064357779994 -3.8190436938590007
 -1.6672587235150000  0.1310064357780000 -4.0195653061410006
 -1.6662257235150000 -0.1310064357780000 -13.8296363061410013
 -6.9544972764850010 -0.1310064357780001 -13.6291146938590018
 -6.4669200670180009 -2.7533693180520000 -4.3973381618580003
 -2.1558689329820000 -2.7533693180520000 -3.4412708381420005
 -2.1548359329820004  2.7533693180520000 -13.2513418381420003
 -6.4658870670180004  2.7533693180519996 -14.2074091618580010
 -3.3981115303720002  3.6278875872000000 -2.8459807727000004
 -5.2246774696280012  3.6278875872000000 -4.9926282273000009
 -5.2236444696279998 -3.6278875871999996 -14.8026992272999998
 -3.3970785303720001 -3.6278875872000000 -12.6560517727000015
 -4.9594772549400004 -1.7147201810760002 -2.4367755763880004
 -3.6633117450600001 -1.7147201810759998 -5.4018334236120005
 -3.6622787450600001  1.7147201810759998 -15.2119044236120011
 -4.9584442549399999  1.7147201810760002 -12.2468465763880019
 -4.3211523313009996  0.7326126478620001 -6.7836448767710005
 -4.3016366686989995  0.7326126478619998 -1.0549641232290001
 -4.3006036686990008 -0.7326126478619996 -10.8650351232290010
 -4.3201193313010000 -0.7326126478620001 -16.5937158767710002
 -5.4449753569540000 -1.8658230296039999 -7.7043630318460004
 -3.1778136430460000 -1.8658230296039999 -0.1342459681540000
 -3.1767806430460004  1.8658230296039999 -9.9443169681540002
 -5.4439423569540004  1.8658230296040001 -17.5144340318460010
 -2.6672379427070001 -1.2638675557260000 -8.0940279664529999
 -5.9555510572930004 -1.2638675557260000  0.2554189664529999
 -5.9545180572929999  1.2638675557260002 -9.5546520335469989
 -2.6662049427070000  1.2638675557260000 -17.9040989664530024
 -4.4508956359500003  4.1371667212320000 -0.1812972629620000
 -4.1718933640499998  4.1371667212320000 -7.6573117370380004
 -4.1708603640500002 -4.1371667212320000 -17.4673827370380010
 -4.4498626359500006 -4.1371667212320000 -9.9913682629620002
 -7.6777134737880006  0.8353898605439999 -0.7611649415880003
 -0.9450755262120000  0.8353898605439999 -7.0774440584120013
 -0.9440425262120001 -0.8353898605439999 -16.8875150584119993
 -7.6766804737880001 -0.8353898605440002 -10.5712359415880019
