Sr In Sb  O 
 1.0000000000000000
     5.8350119999999999    0.0000000000000000    0.0000000000000000
     0.0000000000000000    5.8030419999999996    0.0000000000000000
     0.0000000000000000    5.8186619999999998    8.2103760000000001
 Sr  In  Sb  O  
   4   2   2  12
Cartesian
  0.1909507677000000  5.7673251725439991  2.0533000923359999
  3.1084567676999999  2.9450478274559999  2.0518879076640002
  5.6440612322999995  5.8543788274559994  6.1570759076639998
  2.7265552323000000  8.6766561725439999  6.1584880923360004
  2.9175059999999999  5.8108519999999997  4.1051880000000001
  0.0000000000000000  2.9015209999999998  0.0000000000000000
  0.0000000000000000  2.9093309999999999  4.1051880000000001
  2.9175059999999999  0.0000000000000000  0.0000000000000000
  4.2222613632960000  7.5453351029239997  4.4408610123840004
  4.1059929141840001  7.4206786319360001  7.8961156482240007
  2.8005373494479997  6.2415867369339999  1.9659745332000000
  1.6127506367040001  4.0763688970759997  3.7695149876160001
  1.7290190858160002  4.2010253680640002  0.3142603517760000
  5.7180433494480001  2.4707862630660000  2.1392134668000002
  3.0344746505520002  5.3801172630659995  6.2444014667999994
  0.1169686505520000  9.1509177369339998  6.0711625332000008
  4.5302566367039994  4.6360041029239989  0.3356730123840000
  4.6465250858160001  4.5113476319360002  3.7909276482240002
  1.3047553632960001  6.9856998970759996  7.8747029876159997
  1.1884869141840000  7.1103563680640001  4.4194483517759995
