Co  O Sr  W 
 1.0000000000000000
     5.5945739999999997    0.0000580000000000   -0.0005120000000000
     0.0000579999999999    5.5948180000000001   -0.0006960000000000
     2.7972000000000001    2.7971389999999996    4.1303730000000005
 Co  O   Sr  W  
   1   6   2   1
Cartesian
  5.5945201959449999  5.5945728040794993  4.1297669346495001
  2.7966254328660001  2.7958956225889997  2.1775323416730004
  5.5952037701660000  5.5961165808700004  1.9516202660000004
  3.9942423050100002  1.1174734240745006 -0.0004570442264998
  4.3976176676859993  7.2745247917615004  4.1296220437545008
  3.9146558508769993  4.3974294613104998  4.1289996704985006
  4.4771817436100001  3.9945883358575003  0.0001694596185000
  5.5935841390929992  2.7979035500645004  2.0645892707485007
  2.7982506582809985  5.5941086528544997  2.0645715983664998
  5.5945432296690010  0.0000859725750003 -0.0004954767559995
