Na Fe Se  O 
 1.0000000000000000
     5.4585860000000004    0.0000000000000000    0.0000000000000000
     0.0000000000000000    8.0534800000000004    0.0000000000000000
     0.0000000000000000    0.0000000000000000   12.7620190000000004
 Na  Fe  Se  O  
   4   4   8  24
Cartesian
  1.3646465000000001  7.9693936153200005  4.9301848940230002
  1.3646465000000001  4.1108263846800002 11.3111943940230013
  4.0939395000000003  0.0840863846800000  7.8318341059770002
  4.0939395000000003  3.9426536153200002  1.4508246059770000
  1.3646465000000001  6.4261374568400003  1.2892574454370000
  1.3646465000000001  5.6540825431600004  7.6702669454369996
  4.0939395000000003  1.6273425431600002 11.4727615545630002
  4.0939395000000003  2.3993974568400001  5.0917520545630008
  1.3646465000000001  1.7132570678000001  0.8643204987940000
  1.3646465000000001  2.3134829321999999  7.2453299987939994
  4.0939395000000003  6.3402229322000005 11.8976985012060013
  4.0939395000000003  5.7399970678000001  5.5166890012060001
  1.3646465000000001  8.0112958717600016 10.1269428409179998
  1.3646465000000001  4.0689241282399999  3.7459333409180000
  4.0939395000000003  0.0421841282400000  2.6350761590820002
  4.0939395000000003  3.9845558717600000  9.0160856590820018
  0.0403171161960000  2.4173647707199999 12.7618658557720011
  2.6889758838040003  1.6093752292800001  6.3808563557719999
  2.7696101161960001  5.6361152292800005  0.0001531442280000
  5.4182688838040001  6.4441047707200001  6.3811626442280005
  5.4182688838040001  5.6361152292800005  0.0001531442280000
  2.7696101161960001  6.4441047707200001  6.3811626442280005
  2.6889758838040003  2.4173647707199999 12.7618658557720011
  0.0403171161960000  1.6093752292800001  6.3808563557719999
  1.3646465000000001  0.0929291057200000  0.2873496198040000
  1.3646465000000001  3.9338108942800001  6.6683591198040002
  4.0939395000000003  7.9605508942800007 12.4746693801960014
  4.0939395000000003  4.1196691057199999  6.0936598801960002
  0.0084498911280000  1.0360318811200002 10.0686969862020010
  2.7208431088720002  2.9907081188800002  3.6876874862019999
  2.7377428911280002  7.0174481188800009  2.6933220137980003
  5.4501361088720008  5.0627718811199998  9.0743315137980005
  5.4501361088720008  7.0174481188800009  2.6933220137980003
  2.7377428911280002  5.0627718811199998  9.0743315137980005
  2.7208431088720002  1.0360318811200002 10.0686969862020010
  0.0084498911280000  2.9907081188800002  3.6876874862019999
  1.3646465000000001  7.5505401740000000  8.4581174263830015
  1.3646465000000001  4.5296798260000006  2.0771079263830003
  4.0939395000000003  0.5029398260000000  4.3039015736170008
  4.0939395000000003  3.5238001740000002 10.6849110736170001
