Sr  H  C  O 
 1.0000000000000000
     7.0013339999999999    0.0000000000000000    0.0000000000000000
     0.0000000000000000    7.3851670000000000    0.0000000000000000
     0.0000000000000000    0.0000000000000000    8.8472500000000007
 Sr  H   C   O  
   4   8   8  16
Cartesian
  0.0286564600620000  1.7814869095749999  5.8801300730000001
  6.9726775399380001  5.4740704095749999  7.3907449270000010
  3.5293234600620003  1.9110965904249999  2.9671199270000002
  3.4720105399379997  5.6036800904249997  1.4565050730000000
  3.3043425933060000  0.0308035315570000  6.8882122797500003
  4.9705900719659999  1.5247785046550000  8.7513015737500002
  3.6969914066939999  3.7233870315570003  6.3826627202500008
  0.1963244066940000  7.3543634684430002  2.4645872797500004
  6.8050095933060000  3.6617799684430001  1.9590377202500000
  5.5314109280340000  5.8603884953450001  4.3276765737500007
  2.0307439280340001  5.2173620046550004  4.5195734262500000
  1.4699230719659999  2.1678049953450000  0.0959484262500000
  2.7034811080919998  3.2722936460300001  6.1873862182500003
  6.2041481080920002  0.4202898539700000  2.6598637817500004
  1.6133243949539999  1.0676883635240000  0.0723351160000000
  1.8873426050460000  6.3174786364759994  4.4959601160000000
  5.3880096050459994  4.7602718635240002  4.3512898839999998
  0.7971858919080000  4.1128733539700004  1.7637612182500002
  4.2978528919079997  6.9648771460300001  7.0834887817500007
  5.1139913949540006  2.6248951364760003  8.7749148840000011
  1.0844156192579999  6.8082229836260000  5.3456500060000005
  5.2075992305340000  7.3666819269990000  2.0048753225000002
  5.9169183807419996  3.1156394836260000  7.9252249940000006
  1.7937347694660000  3.6740984269990000  2.4187496775000006
  0.8793115397280000  5.0558779430329999  0.9131512142500001
  2.5341398426340001  6.9530608788300006  3.6054313200000001
  2.6213554602719999  2.3292890569669997  5.3367762142500004
  4.3799785397280004  6.0218725569670006  7.9340987857500007
  6.0348068426340005  4.1246896211699999  5.2418186800000006
  6.1220224602719995  1.3632944430330001  3.5104737857500004
  5.2944017694659999  0.0184850730010000  6.4285003225000006
  0.9665271573660000  0.4321061211700000  8.0290563200000005
  2.4162513807420001  0.5769440163739999  0.9220250060000001
  4.5850826192580003  4.2695275163740005  3.5015999940000007
  4.4671941573659995  3.2604773788300001  0.8181936800000001
  1.7069322305340000  3.7110685730010005  6.8423746775000005
