Fe La Li  O 
 1.0000000000000000
    -0.0005622599999997    3.1450074850000003   -4.3506764750000002
     2.7237991500000005   -1.5729725650000002   -4.3506741849999999
    -2.7247715899999996   -1.5728868999999994   -4.3513017500000002
 Fe  La  Li  O  
   1   2   1   6
Cartesian
  2.7232314427588711  1.5720317755041697 -8.7013397836248849
 -0.0009887872913418 -0.0000268945173419 -3.2671415647847506
 -0.0005486374802475 -0.0008266583695575 -9.7855151965170002
 -0.0007673499999993 -0.0004259899999997 -6.5263262049999984
 -1.3049132503329863  1.0632196339113884 -7.6464560793932366
  1.5682324992619241  0.5966402303693703 -7.6500485159931157
 -0.2714668541182563 -1.6576383689562944 -7.6516054628013483
  1.3033744639429525 -1.0640739728157480 -5.4061963312331835
 -1.5697590270441126 -0.5974843475531640 -5.4026082434305192
  0.2699267055475167  1.6567863890419605 -5.4010469478262166
