 K Fe Se  O 
 1.0000000000000000
     5.5344170000000004    0.0000000000000000    0.0000000000000000
     0.0000000000000000    8.2690809999999999    0.0000000000000000
     0.0000000000000000    0.0000000000000000   13.1826070000000009
 K   Fe  Se  O  
   4   4   8  24
Cartesian
  1.3836042500000001  4.1881737593660002  4.9266434358610010
  1.3836042500000001  8.2154477406339996 11.5179469358610014
  4.1508127500000001  4.0809072406339997  8.2559635641389999
  4.1508127500000001  0.0536332593660000  1.6646600641390001
  1.3836042500000001  6.6360698077959999  7.9405037786290000
  4.1508127500000001  2.5015293077959999 11.8334067213710004
  1.3836042500000001  5.7675516922040000  1.3492002786290000
  4.1508127500000001  1.6330111922039998  5.2421032213709999
  4.1508127500000001  0.0909598910000000  9.2669640601829997
  1.3836042500000001  8.1781211089999992  3.9156429398170003
  1.3836042500000001  4.2255003909999997 10.5069464398170016
  4.1508127500000001  6.5611353957739995  5.7807840912120003
  4.1508127500000001  5.8424861042260003 12.3720875912120007
  1.3836042500000001  1.7079456042259999  7.4018229087880005
  4.1508127500000001  4.0435806090000002  2.6756605601830001
  1.3836042500000001  2.4265948957740000  0.8105194087880000
  2.8043610413210001  5.1317668613569998  2.7154983985370005
  0.0371525413210000  3.1373141386429997 10.4671086014629999
  1.3836042500000001  0.0605710183250000  6.8901004702620003
  2.7285561316720002  1.7552199403030000 13.1272795984210013
  1.3836042500000001  4.7410527841070005  8.8414163236160004
  0.0386523683280000  1.7552199403030000 13.1272795984210013
  5.4972644586790009  7.2718546386430001  9.3068018985370013
  1.3836042500000001  4.0739694816749994  0.2987969702620000
  5.4972644586790009  5.1317668613569998  2.7154983985370005
  2.8058608683280002  6.5138610596969997  0.0553274015790000
  4.1508127500000001  4.1951115183250005 12.8838100297380009
  5.4957646316720004  5.8897604403030002  6.6466309015790008
  0.0371525413210000  0.9972263613569999  3.8758051014630004
  1.3836042500000001  7.6625687158929994  2.2501128236160004
  2.8043610413210001  7.2718546386430001  9.3068018985370013
  2.7300559586789999  3.1373141386429997 10.4671086014629999
  5.4957646316720004  6.5138610596969997  0.0553274015790000
  2.7300559586789999  0.9972263613569999  3.8758051014630004
  2.8058608683280002  5.8897604403030002  6.6466309015790008
  4.1508127500000001  8.2085099816750002  6.2925065297380005
  0.0386523683280000  2.3793205596970002  6.5359760984210000
  2.7285561316720002  2.3793205596970002  6.5359760984210000
  4.1508127500000001  3.5280282158929999  4.3411906763840005
  4.1508127500000001  0.6065122841070000 10.9324941763840009
