 K In Ge  O 
 1.0000000000000000
     4.8241009999999998    5.2588340000000002    0.0000000000000000
    -4.8241009999999998    5.2588340000000002    0.0000000000000000
     0.0000000000000000    1.5060240000000000    5.5221289999999996
 K   In  Ge  O  
   2   2   4  12
Cartesian
 -1.8160231732479997  6.3883520000000003  4.1415967499999997
  1.8160231732479997  5.6353400000000002  1.3805322499999999
  3.8204853797579998  6.3883519999999994  4.1415967499999997
 -3.8204853797579998  5.6353400000000002  1.3805322499999999
 -0.8589794240599998  3.4320968599840000  1.6119922870349999
  0.8589794240599998  8.5915951400160004  3.9101367129649995
 -0.8589794240599997  7.8385831400160004  1.1490722129650000
  0.8589794240599999  4.1851088599840001  4.3730567870349999
 -0.1506904429370004  8.3044806616660001  5.3903102586409997
 -0.1506904429369999  4.4722233383340004  2.8928832413589998
  0.1506904429369999  3.7192113383340000  0.1318187413590000
  0.1506904429370004  7.5514686616660001  2.6292457586409999
 -2.4492636151139999  7.2804875711840005  1.5741104820949998
 -2.4492636151139999  3.9901924288160000  1.1869540179050000
  2.4492636151139999  4.7432044288160000  3.9480185179050000
  2.4492636151140004  8.0334995711840005  4.3351749820949994
  0.6915493506530006 10.3095589479339989  3.4733970524839997
  0.6915493506529999  2.4671450520659999  4.8097964475159998
 -0.6915493506529999  1.7141330520660001  2.0487319475160000
 -0.6915493506530003  9.5565469479340006  0.7123325524840000
