Sr  Y Nb  O 
 1.0000000000000000
     5.9631800000000004    0.0000000000000000    0.0000000000000000
     0.0000000000000000    5.8584370000000003    0.0000000000000000
     0.0000000000000000    5.8289920000000004    8.3366430000000005
 Sr  Y   Nb  O  
   4   2   2  12
Cartesian
  2.7456329305800002  5.8907762124510006  6.2580011076660007
  5.7272229305800009  8.7111487875489999  6.2469633923340000
  0.2359570694200000  2.9762802124510004  2.0896796076660000
  3.2175470694200001  5.7966527875490002  2.0786418923340002
  2.9815900000000002  2.9144960000000002  4.1683215000000002
  0.0000000000000000  0.0000000000000000  0.0000000000000000
  0.0000000000000000  5.8437145000000008  4.1683215000000002
  2.9815900000000002  2.9292185000000002  0.0000000000000000
  1.1695107879600000  7.4614299350110009  4.5227705504310007
  4.1511007879599999  7.1404950649890004  7.9821939495690000
  4.7936692120400002  4.2259990649889998  3.8138724495690002
  1.8120792120400000  4.5469339350110003  0.3544490504310000
  4.3147423735200006  6.9760752724780009  4.5611274448739998
  1.3331523735200002  7.6258497275220005  7.9438370551260009
  1.6484376264800003  4.7113537275219999  3.7755155551260002
  4.6300276264800004  4.0615792724780002  0.3928059448740000
  0.1599265244200000  5.3429092249910006  6.1296251421090000
  3.1415165244200005  9.2590157750090007  6.3753393578910007
  5.8032534755800000  6.3445197750090001  2.2070178578910000
  2.8216634755800003  2.4284132249910004  1.9613036421090002
