Nd Mn Ni  O 
 1.0000000000000000
     5.5980679999999996    0.0000000000000000    0.0000000000000000
     0.0000000000000000    5.4442069999999996    0.0000000000000000
     0.0000000000000000    5.4491969999999998    7.7501840000000000
 Nd  Mn  Ni  O  
   4   2   2  12
Cartesian
  2.4978523435319997  2.7917005836479998  1.9422193609520002
  5.2968863435319999  5.3771049163519988  1.9328726390480000
  3.1002156564679999  8.1017034163519988  5.8079646390479995
  0.3011816564680000  5.5162990836479997  5.8173113609520000
  0.0000000000000000  2.7221034999999998  0.0000000000000000
  2.7990339999999998  5.4467020000000002  3.8750920000000000
  0.0000000000000000  2.7245984999999999  3.8750920000000000
  2.7990339999999998  0.0000000000000000  0.0000000000000000
  1.1187235071880000  4.2726979517349992  0.3423178770960000
  3.9177575071880000  3.8961075482649998  3.5327741229039997
  4.4793444928119994  6.6207060482650002  7.4078661229040002
  1.6803104928119998  6.9972964517349991  4.2174098770960002
  1.2091994822040000  4.3671449889359995  3.5146309421600002
  4.0082334822039991  3.8016605110640000  0.3604610578400000
  4.3888685177960003  6.5262590110640000  4.2355530578400007
  1.5898345177959998  7.0917434889359994  7.3897229421599997
  2.6772032461160000  4.9843367012500002  5.7527290776799997
  5.4762372461159998  8.6336657987500001  5.8725469223199998
  2.9208647538839996  5.9090672987499993  1.9974549223200002
  0.1218307538840000  2.2597382012499998  1.8776370776800000
