Li Mo  O 
 1.0000000000000000
     8.3697020000000002   -0.0008570000000000   -0.6397969999999999
    -1.2062850000000001    8.1045949999999998   -3.1191640000000000
    -0.0162200000000000   -0.0258250000000000   11.8634260000000005
 Li  Mo  O  
   6  12  39
Cartesian
  5.7425889613330003  0.2867019125920000  3.8904009781380000
  1.4046080386669999  7.7912110874079996  4.2140640218619998
  5.3216054387140010  3.8346308108809999  9.7991501051620009
  1.8255915612859999  4.2432821891190002 -1.6946851051620002
  7.4774869382140006  0.0854651552260000  6.8552543584500008
 -0.3302899382140000  7.9924478447739995  1.2492106415499997
 -0.7736027388770000  6.7839680833519997 -2.1977640956150002
  7.9207997388770011  1.2939449166479999 10.3022290956150009
  4.2739528825669995  6.9251844354880001 -2.6556524946550004
  2.8732441174329999  1.1527285645120000 10.7601174946550007
  5.6489100424909990  5.4805215433339995  1.7304079004110002
  1.4982869575090001  2.5973914566660001  6.3740570995890007
  2.3237793433050000  5.6360643623449995  1.8925466451370005
  4.8234176566949998  2.4418486376550002  6.2119183548630001
  4.0683894788860000  5.4277575524790000  5.0835080109610011
  3.0788075211139998  2.6501554475210001  3.0209569890390005
  7.3416679286519999  5.2823224851979997  4.8747398671779996
 -0.1944709286520001  2.7955905148020004  3.2297251328219998
  7.7283388629570009  0.6101645198080000  8.7104155079160002
 -0.5811418629570001  7.4677484801919993 -0.6059505079160000
  7.3478941367770005  5.7172081039730003  6.5427866636280001
 -0.2006971367770000  2.3607048960269998  1.5616783363719999
  7.2015656565150001  1.5641866632899999  3.3411072054490001
 -0.0543686565150000  6.5137263367100005  4.7633577945510002
  4.1848510000000001 -0.0004285000000000 -0.3198985000000000
  3.2934875140940001  5.4514986919059991  9.3970359189780002
  3.8537094859060006  2.6264143080939997 -1.2925709189779999
  3.1350777533800001  1.5068674525949999  6.4676294173009996
  4.0121192466200002  6.5710455474049994  1.6368355826990000
  3.1013314092800006  3.7664448283000000  5.3969612060740006
  4.0458655907200001  4.3114681716999996  2.7075037939260000
  2.8356444652450001  6.3260439972399993  4.1605801559930011
  4.3115525347550010  1.7518690027599999  3.9438848440069996
  3.0068269421950000  1.9038287316100002  1.4706920438719999
  4.1403700578050007  6.1740842683899997  6.6337729561280012
  2.1009798473090000  5.0390629139909997  0.2866824783560002
  5.0462171526910007  3.0388500860090000  7.8177825216440002
  2.7979036114369995  0.4831002502930000  9.1623430293729999
  4.3492933885629999  7.5948127497069997 -1.0578780293729997
  1.4979991359280000  3.3756614459869998  7.9003621121220000
  5.6491978640719998  4.7022515540129994  0.2041028878780000
  1.5031416842340002  1.9031069719309999  3.9627387713710003
  5.6440553157659998  6.1748060280689998  4.1417262286289995
  1.5434300183720002  4.1264670982929994  2.8630581218120001
  5.6037669816280005  3.9514459017070003  5.2414068781880010
  1.1877823456929997  6.9646733171769997  2.0519587721600003
  5.9594146543070003  1.1132396828230000  6.0525062278400004
  1.2520242094479999 -0.0143582561680000 11.6618769430980009
  5.8951727905520004  8.0922712561680008 -3.5574119430980002
  1.2239953334799998  2.2855451015749999 10.7762163143439995
  5.9232016665199998  5.7923678984249998 -2.6717513143439997
  0.3204290641890000  5.4213515195310000  9.6526653339550013
  6.8267679358110005  2.6565614804689996 -1.5482003339549999
  0.5152880430910001  1.1626230130989998  6.5736817200569995
  6.6319089569090002  6.9152899869009996  1.5307832799430001
  0.1639815317880000  3.7392369566819998  5.4027549830240007
  6.9832154682120002  4.3386760433180003  2.7017100169760000
