Sr Fe  O 
 1.0000000000000000
    -2.7211135299999998    2.8009398900000000    7.9943623500000003
     2.7212016000000001   -2.8007727999999998    7.9943388600000000
     2.7184822700000000    2.7983246799999999   -7.9943087899999998
 Sr  Fe  O  
   4   4  10
Cartesian
  2.7325710023197658  0.0794824173351869  1.7570024217295463
  0.0120804995807579  2.7196914735258790  6.2371914095272949
  0.0120355844574495  2.7195925076420928  1.7572304781824095
  2.7326027257041616  0.0795870765171095  6.2373564352751254
  5.4321275293743119 -0.0009039784784239 -0.0007833022590765
  2.7109790351691725  2.7999425530073938  0.0008811147975651
  2.9422293039361480  2.4223874422953529 -3.9967572347840954
  0.2194501916774188  0.3734435830439988 11.9911541592257382
  1.3597315365398714 -1.3901827960882729  7.9005164908000562
  1.3580967143021900  1.3889250921043790  8.0914130698772269
  1.3576438572379124  1.3886540588743803 -0.0970105529146963
 -1.3616647493499900  1.4106768779554124  8.0882041688942952
 -0.0718036278285836  0.2373901133710468  2.2562868572534094
  2.6394123364340731  2.5599198911414875  5.7375398354755447
  2.6393678982210780  2.5598255222487483  2.2571438181008894
 -0.0718343291898219  0.2375345848496736  5.7377691470518322
  2.1281756525886601 -0.6928126921195163  3.9972059485221911
 -0.5966473852254081  3.4928749159429215  3.9971782407352943
