Pb  O 
 1.0000000000000000
     3.9995143299999998    0.0000000000000000    0.0000000000000000
     0.0000000000000000    3.9995143299999998    0.0000000000000000
     0.0000000000000000    0.0000000000000000    5.2598163500000004
 Pb  O  
   2   2
Cartesian
  1.9997571649999999  0.0000000000000000  1.1885858951298167
  0.0000000000000000  1.9997571649999999  4.0712304548701841
  1.9997571649999999  1.9997571649999999  0.0000000000000000
  0.0000000000000000  0.0000000000000000  0.0000000000000000
