Sr Mn Se  O 
 1.0000000000000000
    15.0930339999999994    0.0000000000000000    0.0000000000000000
     0.0000000000000000    4.5041110000000000    0.0000000000000000
     0.0000000000000000    3.8026970000000002    9.7560540000000007
 Sr  Mn  Se  O  
   4   4   8  24
Cartesian
 13.3320693510839980  5.2202442435820000  5.2195084021080005
  5.7855523510840001  4.9879122564180003  9.4145725978920005
  1.7609646489160000  3.0865637564180002  4.5365455978920002
  9.3074816489160010  3.3188957435820003  0.3414814021080000
  5.2381581939719997  3.2925175135460001  2.8410507292860001
  9.8548758060279997  5.0142904864539997  6.9150032707140001
  2.3083588060280000  5.1938660135460006  7.7190777292860009
 12.7846751939719994  3.1129419864540000  2.0369762707140002
 12.0593492590339988  5.1138407299160002  8.9967988535040000
  3.0336847409660002  3.1929672700839999  0.7592551464960001
  7.5440568354579991  5.3738246345189999  2.7380853353700001
  0.0024601645420000  7.2751731345190001  7.6161123353700004
 10.5802017409660003  3.2124922299160001  4.1187718535040005
  4.5128322590340000  5.0943157700840001  5.6372821464960001
  7.5489771645420003  2.9329833654810002  7.0179686646300006
 15.0905738354579988  1.0316348654810001  2.1399416646300002
  4.5311099232079997  3.5573258693730003  4.8424369150080002
 14.9426319161899990  2.7506967214099998  2.1004686701460002
  4.7517549872540004  3.5281495596140000  0.6513141650400001
  7.3961149161899993  3.6547627785899999  2.7775583298540001
  1.7283184163740000  3.0982107467789999  7.5150396159300001
  4.4684738321079998  4.7005806538570001  7.3197526830120001
 10.3412790127459999  4.7786584403859997  9.1047398349600002
 10.6245601678919996  3.6062273461430001  2.4363013169880001
 14.6140867520779985  3.0161473914150001  5.9687343250920000
  7.0675697520779996  7.1920091085850002  8.6653466749080010
  3.0780431678919999  2.7992321538570000  2.4417256830120002
  8.0254642479220006  1.1147988914150000  1.0907073250920001
  0.4789472479219999  5.2906606085850001  3.7873196749080003
 10.5619240767919997  4.7494821306269994  4.9136170849920004
  3.0154070767919996  5.4586743693730000  9.7204639150080006
  0.1504020838100000  5.5561112785900004  7.6555853298540004
 13.3647155836259994  5.2085972532209999  2.2410143840700001
  9.2748354163739997  7.1099457532210000  7.1190413840700009
 12.0776269232079994  2.8481336306269998  0.0355900849920000
 12.0149908321079995  5.5075758461430002  7.3143283169880009
  5.8181985836259997  1.1968622467790000  2.6370126159300002
 12.2982719872539992  2.8773099403860001  4.2267128349600007
  2.7947620127459998  5.4294980596140006  5.5293411650400008
  7.6969190838100001  4.6520452214099999  6.9784956701460006
