Eu Nb  O 
 1.0000000000000000
     5.5793160000000004    0.0000000000000000    0.0000000000000000
     0.0000000000000000    7.8105529999999996    0.0000000000000000
     0.0000000000000000    0.0493600000000000   11.3036259999999995
 Eu  Nb  O  
   4   8  24
Cartesian
  3.0182425765200001  5.8567980637009986  0.4650989953960000
  0.2285845765200000  1.9784349362989999  5.1867140046039992
  2.5610734234800003  2.0031149362989997 10.8385270046039999
  5.3507314234800010  5.8814780637009987  6.1169119953960003
  0.1587036436200000  7.7432553636280002  1.6236528386399998
  2.9483616436200006  0.0919776363720000  4.0281601613599998
  5.4206123563800004  0.1166576363720000  9.6799731613599995
  2.6309543563800002  7.7679353636280002  7.2754658386399997
  2.5807070364840001  3.7773847097649997  7.2632805298119996
  5.3703650364840003  4.1072082902349996  9.6921584701879997
  2.9986089635160003  4.0825282902349995  4.0403454701879999
  0.2089509635160000  3.7527047097649997  1.6114675298119998
  1.2630232388160001  7.5707916129379997 11.0125011123699998
  4.0526812388160005  0.3138013870619999  5.9429378876299994
  4.3162927611840001  0.2891213870620000  0.2911248876300000
  1.5266347611839999  7.5461116129379997  5.3606881123700001
  1.5286265769959999  4.2230497235300000  5.3571952919359997
  4.3182845769960005  3.6121832764700001  0.2946177080640000
  4.0506894230040000  3.6368632764699997  5.9464307080639998
  1.2610314230040001  4.2477297235300000 11.0090082919360004
  2.0709695680919999  7.3976178579389993  2.3755474329080002
  4.8606275680920010  0.4376151420610000  3.2762655670919996
  3.5083464319080000  0.4622951420610000  8.9280785670919993
  0.7186884319080001  7.4222978579389993  8.0273604329079991
  0.7200051504840000  4.3503630987919992  8.0154351074779999
  3.5096631504840001  3.5342299012080001  8.9400038925219985
  4.8593108495160005  3.5095499012080000  3.2881908925220000
  2.0696528495159998  4.3256830987920001  2.3636221074780002
  5.3470490749200010  5.8464286095649989  1.6534378931499998
  2.5573910749200004  1.9888043904349999  3.9983751068499997
  0.2322669250800000  2.0134843904349999  9.6501881068499991
  3.0219249250800000  5.8711086095649989  7.3052508931500002
  0.8277138458640001  1.9353921680819999  1.4272523368899999
  3.6173718458640001  5.8998408319179996  4.2245606631099992
  4.7516021541360001  5.9245208319179996  9.8763736631099999
  1.9619441541360003  1.9600721680819999  7.0790653368899994
