Na Fe Ge  O 
 1.0000000000000000
     4.5172569999999999    5.0977600000000001    0.0000000000000000
    -4.5172569999999999    5.0977600000000001    0.0000000000000000
     0.0000000000000000    1.7110040000000000    5.3262409999999996
 Na  Fe  Ge  O  
   2   2   4  12
Cartesian
 -1.8071015593080000  6.3810130000000003  3.9946807499999997
  1.8071015593080000  5.5255109999999998  1.3315602499999999
  3.6395539649000002  6.3810130000000003  3.9946807499999997
 -3.6395539649000002  5.5255109999999998  1.3315602499999999
  0.8406028033590000  8.5129600855720007  3.8680387177429996
  0.8406028033589998  4.2490659144279999  4.1213227822569998
 -0.8406028033589998  3.3935639144279999  1.4582022822569998
 -0.8406028033590000  7.6574580855719994  1.2049182177430000
  2.4321002033139996  7.9029121862520002  4.2497704102129994
  2.4321002033140000  4.8591138137480003  3.7395910897869999
 -2.4321002033140000  4.0036118137479999  1.0764705897869999
 -2.4321002033140000  7.0474101862519998  1.5866499102130001
  0.7215143570679998 10.2002488271320004  3.3503813549529995
  0.7215143570679999  2.5617771728680001  4.6389801450470003
 -0.7215143570679999  1.7062751728679999  1.9758596450469998
 -0.7215143570679997  9.3447468271320009  0.6872608549530000
  0.0449557416639997  7.3985699310559996  2.7406918739239998
  0.0449557416640000  5.3634560689440001  5.2486696260759995
 -0.0449557416640001  4.5079540689440005  2.5855491260759997
 -0.0449557416640000  6.5430679310559992  0.0775713739240000
