Ca Al Si  O 
 1.0000000000000000
     5.3304989999999997    0.0000000000000000    0.0000000000000000
    -0.0371420000000000    8.7387530000000009    0.0000000000000000
    -2.5949529999999998   -0.0285620000000000    9.3615530000000007
 Ca  Al  Si  O  
   4   8   4  24
Cartesian
 -1.3000323745840001  2.6769934404579998  9.3263441991670000
  2.6749311944260001  7.0971761761250010  4.8040026221390004
  1.3531195510350003  5.9793090545700007  9.3285441641220004
  0.0322212465920000  1.6324295992840003  4.8076349047029998
  3.0551309592979998  0.8260668574330001  6.6675227238720005
  1.0109923663709997  3.4969205848830001  7.3283641116950005
  0.3571180396659999  7.8589717840970010  6.6531340169110003
  4.3573611956370000  3.5030685030090005  2.0137074965120001
 -1.2912941050280000  7.9224602232380015  9.3393286731780005
  2.7490615424499998  3.5439871897310002  4.7220141409650003
  1.3969524371309998  0.7889068669440000  9.3178626321490015
  0.0708059816700001  5.1313772286990007  4.6948281910530003
  1.7020089481410001  5.2077412761510002  1.9493093734250000
  2.2826928765440000  0.8178585845710001  2.6727608277120001
 -1.6658984709919999  5.1890019833870014  7.4039305675110008
 -0.4162376038229999  7.8777409149780011  2.6867282647880000
 -2.2398421360879999  0.6107317445900001  8.4502245385560002
  3.4374238572269995  2.3827192506000001  5.9597799555190010
  1.5965829750770000  0.2000735030320000  5.9490984235460003
  1.7387646844269997  5.1016579355780012  3.6060234078350004
  1.9853487380269996  6.6729335789530007  1.2789004784360003
  0.3045250052240000  4.5806284484319999  1.3629391397170001
  2.2646546764210003  0.7082526707720000  1.0387485593270001
  2.0964299412169995  2.2454380426630003  3.4005092348260004
  3.6682655596889995  0.0827907145890000  3.2280694285660005
  3.6494450187599998  5.1291703622700000  5.7418149170200001
 -1.9548175052919998  6.6343874024710008  8.1099508101120001
 -0.2738287231759998  4.5576701529200010  7.9884378521720008
  4.9379419029689995  7.9215562916880007  1.0486249977420001
 -0.6421649915099999  6.4790001323490012  3.4567159990380003
  0.9659590305349999  8.6259674744680002  3.2433568446150005
  1.0445478005220001  3.6401478992040004  5.5614084291569998
  0.6754687325520001  2.0054205722640002  8.1519092906580006
  2.4640761661220001  4.2330645942820002  8.0099881471780012
  0.3947313707130004  7.9999243898460008  8.4558789165680004
  0.7654937945279997  6.3267019046639996  5.8996600621530009
 -1.1027796327159998  8.5068268184980003  5.9517758277040000
 -0.9493491576180000  3.7240391760930001  3.7715075802160003
  4.6870616360439996  1.9857632355530004  1.2331880151370003
  2.8952962155969999  4.2418019591570006  1.3396382343000002
