Sr Cu Se  O 
 1.0000000000000000
     2.6138200000000000    4.0815630000000001    0.0000000000000000
    -2.6138200000000000    4.0815630000000001    0.0000000000000000
     0.0000000000000000    0.2643400000000000   15.0954870000000003
 Sr  Cu  Se  O  
   2   2   4  12
Cartesian
 -2.3018971764799998  4.2798179999999997 11.3216152500000007
  2.3018971764799998  4.1476480000000002  3.7738717500000001
  0.0000000000000000  0.0000000000000000  0.0000000000000000
  0.0000000000000000  0.1321700000000000  7.5477435000000002
 -0.0011579222600000  5.4881416227509998 13.6821267431639999
  0.0011579222600000  5.3559716227510004  6.1343832431640006
 -0.0011579222600000  3.0714943772490000  8.9611037568360015
  0.0011579222600000  2.9393243772490005  1.4133602568360000
  1.5434659376400000  4.6795844829459998 13.4991845362110006
  1.5434659376400000  3.8800515170540004  9.1440459637890008
 -1.5434659376400000  3.7478815170540001  1.5963024637890000
 -1.5434659376400000  4.5474144829460004  5.9514410362110004
 -1.0880653066800001  4.1080179916420008 13.8608875002180003
 -1.0880653066800001  4.4516180083579995  8.7823429997820011
  1.0880653066800001  4.3194480083580000  1.2345994997820000
  1.0880653066800001  3.9758479916420004  6.3131440002180002
  0.3198871330600001  5.7688366446390003  4.5209021151690001
  0.3198871330599999  2.5264593553609997  3.0268413848310001
 -0.3198871330600000  2.6586293553610001 10.5745848848310011
 -0.3198871330600000  5.9010066446389997 12.0686456151690003
