Ag  S  O 
 1.0000000000000000
     4.7366289500000001    0.2710766300000000    0.1923240800000000
    -2.0071696999999999    4.1793214699999996    0.2068982200000000
     2.1708286000000001   -0.4668918500000000    7.9610031000000001
 Ag  S   O  
   2   2   8
Cartesian
  0.0000000000000000  0.0000000000000000  0.0000000000000000
  2.4501391883710504  1.9917528539233700  4.1801125076759202
  0.0667401592466336  2.3804851519773025  2.0791287519573092
  4.8335476907533677  1.6030210980226971  6.2810966480426904
 -0.2020630976305540  3.2109282961346808  0.9002290946278545
  4.3910728576815146  1.2487827562719114  2.0513463991002321
  1.5254407641751746  2.4864788149558099  2.3078510427593772
  4.0931645955306308  3.1348976333570904  3.4712461055756791
  0.8071137812114697  0.8486080744896495  4.8889789097761618
  3.3748403420261757  1.4970313432890296  6.0523743718147625
  0.5092149923184852  2.7347234937280884  6.3088790008997684
  5.1023489404608542  0.7725821331867888  7.4599965122703651
