Sr Cr Sb  O 
 1.0000000000000000
     0.0001390000000000    5.6415439999999997    0.0000070000000000
    -2.8462830000000001    2.8207100000000001    3.9773930000000002
     2.8476750000000002    2.8208440000000001    3.9787759999999999
 Sr  Cr  Sb  O  
   2   1   1   6
Cartesian
  0.0236662898959999  5.6414786883960000  5.9646596198879998
 -0.0221580483170001  5.6414105741200000  1.9916595852370000
  0.0003169223590001  8.4622645729560002  3.9785607876350002
  0.0014129611669999  8.4621539306839999  7.9553092444539999
 -0.3337139219060002  8.4624707805380002  5.9819167539680000
  0.3354611948460000  2.8208416024059999  1.9736068935680000
 -1.4358173797489999  4.2393232202539997  3.7263106944950000
 -1.4358536210730002  7.0437601271179995  3.7263101705600001
  1.4376075270999999  7.0436309270760002  4.2303467160540000
  1.4374957293940003  4.2397073971620003  4.2302915115340003
