Ba Tm  O 
 1.0000000000000000
     8.5924259999999997   -3.0373109999999999    0.0000000000000000
     8.5924259999999997    3.0373109999999999    0.0000000000000000
     7.5187759999999999    0.0000000000000000    5.1500529999999998
 Ba  Tm  O  
   3   4   9
Cartesian
  0.0113883725080000 -0.0000000000000000  0.0023741744330000
 20.6562102921079997 -0.0000000000000002  4.3062734665329998
 10.4084289924959990 -0.0000000000000000  2.1698821305959997
 14.2051789870719993  0.0000000000000000  2.9614040762719998
  3.3653999460680000 -0.0000000000000000  0.7015968702429999
  6.4582447644120000 -0.0000000000000000  1.3463732057370001
 17.2883893904960004 -0.0000000000000000  3.6041718910959997
 15.4773095169420003 -0.3166001867069999  4.9415170539239996
 15.9352856609420002  1.6121955668669998  2.7447104462440000
 16.0471997159919972 -1.2955953801600000  2.2078843716829999
 12.6746747630540000 -0.2657495259450001  4.4999721099159995
 13.1844126472039989  1.7077767067259999  2.0548762970529997
 13.2783516539539992 -1.4420271807809997  1.6042724098179999
 18.4428358438099984 -1.6723889962649998  4.4586892850680000
 18.9223805426600009  0.3157770754259998  2.1584232626710000
 18.3312127479100013  1.3566119208389997  4.9941196952659999
