Sr Nb In  O 
 1.0000000000000000
     5.8513940000000000    0.0000000000000000    0.0000000000000000
     0.0000000000000000    5.7971510000000004    0.0000000000000000
     0.0000000000000000    5.8076090000000002    8.2136270000000007
 Sr  Nb  In  O  
   4   2   2  12
Cartesian
  0.1992575198820000  2.8590299736899998  2.0600433606160000
  3.1249545198819999  5.8419255263100007  2.0467701393840003
  2.7264394801180001  5.7628344736900008  6.1668568606160008
  5.6521364801180001  8.7457300263100013  6.1535836393840002
  2.9256970000000000  2.8985755000000002  0.0000000000000000
  0.0000000000000000  5.8023800000000003  4.1068135000000003
  2.9256970000000000  2.9038045000000001  4.1068135000000003
  0.0000000000000000  0.0000000000000000  0.0000000000000000
  3.0391028671139999  8.2653613457610007  6.2451491531800007
  0.1134058671140000  6.2432031542390005  6.0752913468200003
  2.8122911328860001  3.3393986542390004  1.9684778468200002
  5.7379881328860005  5.3615568457610001  2.1383356531800004
  4.6542865585099999  7.4000917527360004  3.7922972949160005
  1.7285895585100000  1.3008637472640001  0.3145162050840000
  1.1971074414900000  4.2046682472640002  4.4213297050840001
  4.1228044414900005 10.3038962527360010  7.8991107949160009
  1.3110925966100000  9.8807473088529996  7.8737553283670003
  4.2367895966099995  4.6278171911470007  4.4466851716330007
  4.5403014033900000  1.7240126911470002  0.3398716716330000
  1.6146044033900000  6.9769428088529999  3.7669418283670004
