Ca Mn  W  O 
 1.0000000000000000
     5.5203790000000001    0.0000010000000000   -0.0234110000000000
     0.0000010000000000    5.7384110000000002   -0.0000120000000000
    -0.0086750000000000   -0.0000170000000000    7.9213180000000003
 Ca  Mn  W   O  
   4   2   2  12
Cartesian
  5.4385593610070000  0.3211984930850000  1.9851226818890002
  2.8376777366220001  3.1904151182980001  1.9404441365720002
  0.0731456303190000  5.4172022453089994  5.9127802394170006
  2.6740272547040003  2.5479856200960000  5.9574587847340004
  5.5160310286480012  2.8692324305999994  3.9371786762059999
  2.7515210377230002  5.7383600695690005  7.9095846340250011
  2.7558575117040003 -0.0000080000160000  3.9489613979070004
  0.0000005000000000  2.8692055000000001 -0.0000060000000000
  3.7552805044120006  1.6203023982120002  3.4738707492860001
  4.5209736331489996  4.4894915616950000  0.4516668017480000
  1.7564244869129999  4.1180926017710000  4.4240321720319997
  0.9907368785540001  1.2488976998779999  7.4462360961709999
  1.1687908686899997  1.0709218392940001  4.3406401452290000
  1.5783704347429999  3.9400918743810003  7.5296288673820007
  4.3429196516889998  4.6674731607069999  3.5572548313600003
  3.9333290275270003  1.7982973871730001  0.3682819986770000
  0.5682545270450000  2.6420580835350003  1.8600916922050001
  2.1875988677649998  5.5112691095990005  2.0888685217290002
  3.3241061235600000  0.2271258903840000  5.8090343995890006
  4.9434559846589989  3.0963369164490002  6.0378112057020008
