 K Na  V  O 
 1.0000000000000000
     5.1454380000000004    5.4190129999999996    0.0000000000000000
    -5.1454380000000004    5.4190129999999996    0.0000000000000000
     0.0000000000000000    1.5205500000000001    5.7348210000000002
 K   Na  V   O  
   2   2   4  12
Cartesian
 -3.1074637895880004  5.7991504999999997  1.4337052500000000
  3.1074637895880000  6.5594254999999997  4.3011157500000001
  0.9731875615680001  5.7991504999999997  1.4337052500000000
 -0.9731875615680001  6.5594254999999997  4.3011157500000001
  0.8727177391799995  9.6995519245579995  4.4594828319149995
  0.8727177391800002  3.4192990754419998  4.1427486680850008
 -0.8727177391800002  2.6590240754419998  1.2753381680850000
 -0.8727177391799998  8.9392769245579995  1.5920723319150001
  2.7406043510640004  4.0819182977699997  1.2297291366720000
  2.7406043510639999  7.5163827022299996  1.6376813633280001
 -2.7406043510639999  8.2766577022299987  4.5050918633280004
 -2.7406043510640004  4.8421932977699997  4.0971396366719999
  0.1396060238160000  2.4210981753279999  2.7871860890310001
  0.1396060238159997  9.1772028246719994  0.0802244109690000
 -0.1396060238159995  9.9374778246719995  2.9476349109690001
 -0.1396060238159999  3.1813731753279999  5.6545965890309997
  0.9013881197160004  8.0706794706519993  4.8779985988530008
  0.9013881197160002  5.0481715293479992  3.7242329011469999
 -0.9013881197160002  4.2878965293480000  0.8568224011470001
 -0.9013881197160005  7.3104044706519993  2.0105880988529998
