Sr Zn Se  O 
 1.0000000000000000
    15.1728889999999996    0.0000000000000000    0.0000000000000000
     0.0000000000000000    4.5802339999999999    0.0000000000000000
     0.0000000000000000    3.6904210000000002    9.4929260000000006
 Sr  Zn  Se  O  
   4   4   8  24
Cartesian
  1.7701299222960001  3.0117055656989997  4.3593509706460001
  5.8163145777040004  4.8569160656990000  9.1058139706460004
 13.4027590777039993  5.2589494343009999  5.1335750293540006
  9.3565744222959992  3.4137389343010001  0.3871120293540001
 12.8769274365199990  3.1483536371790000  2.1137423677900000
  9.8824060634799995  4.9935641371789998  6.8602053677900008
  5.2904829365200001  3.2770908628209998  2.6327206322100003
  2.2959615634800001  5.1223013628210001  7.3791836322100002
  4.5875533349279998  5.0120994765380003  5.3493397444080006
  0.0789293685780000  7.3343985510689995  7.3993655928860003
 12.1739978349279987  5.1037660234619997  8.8900492555920003
  2.9988911650719996  3.1668889765379999  0.6028767444080000
 15.0939596314219990  0.9362564489310001  2.0935604071140004
  7.5075151314220001  5.4891880510690001  2.6529025928860004
  7.6653738685780004  2.7814669489310004  6.8400234071140007
 10.5853356650719999  3.2585555234619998  4.1435862555920000
 12.2909959820069989  2.8262521482619998  4.0452015705280004
  2.8453263555029999  2.5463408021439999  2.1721903131720000
 14.8723140689099989  2.6541788927800001  2.0930193103320001
 11.9936528762740000  2.8612326800390000  0.3655820731860000
  4.7045514820069991  3.5991923517379996  0.7012614294720000
  8.1072387420359995  1.1557526592000000  1.0492151390760001
 12.3275626444970001  5.7243141978559997  7.3207356868280007
  0.5207942420360000  5.2696918408000002  3.6972478609240000
  7.0656502579639993  7.1149023408000005  8.4437108609239999
  5.8180291141609999  1.3114838191389999  2.4349639977780000
  0.3005749310900000  5.6164761072200005  7.3999066896680006
 10.7656806237260003  4.7064431800389999  5.1120450731859997
 14.6520947579639991  3.0009631592000003  5.7956781390760002
 10.4683375179929996  4.6714626482619996  8.7916645705280008
  2.8818930179929998  5.4444028517380003  5.4477244294720011
  7.2858695689099999  3.7712656072199997  2.6534436896680003
  7.8870194310899997  4.4993893927800004  6.8394823103320004
  3.1792361237260001  5.4094223199610001  9.1273439268140013
  1.7684153858389999  3.1566943191390004  7.1814269977780008
  9.3548598858389997  6.9591711808610004  7.0579620022220002
  4.7411181444970003  4.3915513021440002  6.9186533131720003
 13.4044736141610006  5.1139606808610001  2.3114990022219999
  4.4072083762740002  3.5642118199609998  4.3808809268140001
 10.4317708555030002  3.8791036978559994  2.5742726868279999
