Na La Fe  W  O 
 1.0000000000000000
     0.0000000000000000   -5.6019880000000004    0.0000000000000000
    -5.6478560000000000    0.0000000000000000    0.0233570000000000
     0.0057770000000000    0.0000000000000000   -8.1102430000000005
 Na  La  Fe  W   O  
   2   2   2   2  12
Cartesian
 -1.4512737901449999 -5.5002502959320001 -4.0526032412289998
 -4.1908052098549993 -2.6992562959320003 -4.0342827587710000
 -1.3923101967500002 -5.5408366989919999 -8.0965617848240008
 -4.2497688032499994 -2.7398426989920002  0.0096757848240000
 -1.3875716437279999 -2.6196968623560002 -6.0033500497810008
 -4.2545073562719997 -5.4206908623560004 -2.0835359502190003
 -1.4295935114249998 -2.5959500352239999 -2.1154535239080001
 -4.2124854885750000 -5.3969440352240001 -5.9714324760920006
 -5.6153499033280001 -1.3563925484760002 -1.5187571693810000
 -0.0267290966720000 -4.1573865484760004 -6.5681288306190009
 -5.4676279795389995 -1.2492993438800002 -6.4939575065160007
 -0.1744510204610000 -4.0502933438800008 -1.5929284934840002
 -2.5812733815450000 -1.0449332196520000 -2.2254665131909999
 -3.0608056184549999 -3.8459272196519998 -5.8614194868089999
 -2.7303457015050001 -0.9663317260240002 -5.8364927905010004
 -2.9117332984949997 -3.7673257260240005 -2.2503932094990002
 -1.8710436480260000 -2.5312246658720001 -0.0725047102840000
 -3.7710353519740001 -5.3322186658720003 -8.0143812897160007
 -0.9384198643519999 -2.5972721043920002 -3.9125114830350003
 -4.7036591356479995 -5.3982661043920004 -4.1743745169649999
