Ba Te Mo  O 
 1.0000000000000000
     7.5870699999999998    0.0000000000000000    0.0000000000000000
     0.0000000000000000    5.7022839999999997    0.0000000000000000
     0.0000000000000000    0.0701200000000000    9.0096340000000001
 Ba  Te  Mo  O  
   2   2   4  18
Cartesian
  5.7133140833099993  1.6572790312919998  8.4194038670260003
  1.9197790833099999  4.1151249687079989  0.5902301329740000
  7.4788100981700003  3.5170076603879998  5.2494632500999998
  3.6852750981700000  2.2553963396120000  3.7601707498999999
  4.1650586437600001  4.5153242644239997  6.0804037746519999
  0.3715236437600000  1.2570797355760002  2.9292302253480003
  1.7417257245500000  1.3250999292919998  6.9147048926860002
  5.5352607245499996  4.4473040707079994  2.0949291073139999
  3.9793878667199998  4.1160112019600001  7.8015682154760002
  0.1858528667200000  1.6563927980399997  1.2080657845240002
  5.3785422066299997  0.0840104844800000  6.0906026803400000
  1.5850072066300001  5.6883935155199996  2.9190313196600002
  2.6531680307199998  5.6086052624119995  5.7945551167340001
  6.4467030307200002  0.1637987375880000  3.2150788832660004
  2.9166138623300002  1.4159192341519999  8.2348685434380009
  6.7101488623299996  4.3564847658480002  0.7747654565620000
  4.3140686985599999  4.0950732591679992  3.9741585670340003
  0.5205336985600000  1.6773307408320000  5.0354754329660008
  2.0098983007700002  2.6800350863840001  2.9653498480540001
  5.8034333007700001  3.0923689136159997  6.0442841519460009
  3.0691367305399999  2.6574670744760001  5.6244532268140004
  6.8626717305399998  3.1149369255240003  3.3851807731859997
  4.5712172620699993  2.8587133718839999  1.7780512699000000
  0.7776822620699999  2.9136906281159995  7.2315827300999995
  4.3595228349299999  5.5971176677559997  1.4420279602360000
  0.5659878349299999  0.1752863322440000  7.5676060397639997
