Ba Nd Co  O 
 1.0000000000000000
     3.8561990000000002    0.0000000000000000    0.0000000000000000
     0.0000000000000000    3.8561990000000002    0.0000000000000000
     0.0000000000000000    0.0000000000000000    7.9299510000000000
 Ba  Nd  Co  O  
   1   1   2   6
Cartesian
  0.0000000000000000  0.0000000000000000  3.9649755000000000
  0.0000000000000000  0.0000000000000000  0.0000000000000000
  1.9280995000000001  1.9280995000000001  5.9692071756420004
  1.9280995000000001  1.9280995000000001  1.9607438243580000
  1.9280995000000001  1.9280995000000001  0.0000000000000000
  1.9280995000000001  1.9280995000000001  3.9649755000000000
  0.0000000000000000  1.9280995000000001  6.1704772619729997
  1.9280995000000001  0.0000000000000000  6.1704772619729997
  0.0000000000000000  1.9280995000000001  1.7594737380270000
  1.9280995000000001  0.0000000000000000  1.7594737380270000
