Ba Co Se  O 
 1.0000000000000000
     5.5555969999999997    0.0000000000000000    0.0000000000000000
     0.0000000000000000    7.3480850000000002    0.0000000000000000
     0.0000000000000000    0.0000000000000000   15.3442080000000001
 Ba  Co  Se  O  
   4   4   8  24
Cartesian
  1.3888992499999999  6.7701581147500001  5.8694204115359998
  1.3888992499999999  4.2519693852499998 13.5415244115360007
  4.1666977500000000  0.5779268852500000  9.4747875884640003
  4.1666977500000000  3.0961156147500000  1.8026835884640000
  1.3888992499999999  5.8307421879249999  1.9115507442239998
  1.3888992499999999  5.1913853120750000  9.5836547442239990
  4.1666977500000000  1.5173428120750001 13.4326572557760002
  4.1666977500000000  2.1566996879250002  5.7605532557759993
  1.3888992499999999  0.9404667029799999 15.1031198039040007
  1.3888992499999999  2.7335757970200003  7.4310158039039997
  4.1666977500000000  6.4076182970200000  0.2410881960960000
  4.1666977500000000  4.6145092029799999  7.9131921960959994
  1.3888992499999999  0.2527447316600001 11.7938191203359999
  1.3888992499999999  3.4212977683400001  4.1217151203359998
  4.1666977500000000  7.0953402683400002  3.5503888796640002
  4.1666977500000000  3.9267872316600001 11.2224928796639993
  0.0590726629010000  2.0564350680999999 14.9602038505920003
  2.7187258370990000  1.6176074319000000  7.2880998505920003
  2.8368711629009997  5.2916499319000003  0.3840041494080000
  5.4965243370989993  5.7304775681000004  8.0561081494080007
  5.4965243370989993  5.2916499319000003  0.3840041494080000
  2.8368711629009997  5.7304775681000004  8.0561081494080007
  2.7187258370990000  2.0564350680999999 14.9602038505920003
  0.0590726629010000  1.6176074319000000  7.2880998505920003
  1.3888992499999999  0.5220961354200000  1.4250779737920001
  1.3888992499999999  3.1519463645800001  9.0971819737920008
  4.1666977500000000  6.8259888645800002 13.9191300262080002
  4.1666977500000000  4.1961386354200005  6.2470260262080002
  0.0406058584730000  1.3318404062500000 11.8760026983840010
  2.7371926415269998  2.3422020937500001  4.2038986983840001
  2.8184043584729999  6.0162445937499998  3.4682053016159999
  5.5149911415269992  5.0058829062500001 11.1403093016160000
  5.5149911415269992  6.0162445937499998  3.4682053016159999
  2.8184043584729999  5.0058829062500001 11.1403093016160000
  2.7371926415269998  1.3318404062500000 11.8760026983840010
  0.0406058584730000  2.3422020937500001  4.2038986983840001
  1.3888992499999999  7.2578652123700005 10.0838912692319997
  1.3888992499999999  3.7642622876300003  2.4117872692320002
  4.1666977500000000  0.0902197876300000  5.2603167307679994
  4.1666977500000000  3.5838227123699999 12.9324207307680012
